Rotary Speed (RPM),Torque (ft-lbs),Weight on Bit (WOB) (lbs),Vibration_Level,Von Mises stress (psi),Torsional stress (psi),Bending stress (psi),Tensile stress (psi),Compressive stress (psi),Bottom hole temperature (Â°F),Mud weight (ppg),Drill pipe weight (lbs/ft),Drill pipe length (ft),Drill collar length (ft),HWDP length (ft),Failure,Risk_Level
150.8065357218493,28599.369785325576,21614.927476034707,0.8130512071433081,29845.543206707902,22038.85182858634,14539.230736893593,17288.69802093419,29222.68264983028,209.69321301804018,11.532926237925249,23.23943720207821,4985.857596349844,1045.093847168916,1212.3664939909263,1,High Risk (Failure)
132.75837690141745,21922.02555617759,10784.057079993778,0.29087973224421937,56412.8675086388,15212.19382953586,3348.0891401840154,69930.26567528408,40506.92118272786,129.28491670584575,8.962279013890067,22.754329991990286,4041.122332342522,1135.2572166452162,584.684570288134,1,High Risk (Failure)
100.28784942511244,18285.26426885177,32509.36247055508,0.25283620307479004,22608.231115054426,5548.263560884907,3569.584132719093,67329.28782803562,35341.21054413298,198.38235755501904,11.16680904645316,21.566251711453365,4011.838031562768,1185.977137471395,1344.0067562274353,1,High Risk (Failure)
128.63904438000293,14279.108558685071,24431.27224370689,0.8022213189713018,33757.82966671655,15479.99274724873,9257.10199783175,58019.11411595502,49658.37597672051,181.06899786190206,8.995454354803229,24.53055701435554,4790.229338869501,1320.778266618603,1211.5300092915097,1,High Risk (Failure)
98.20434332292837,15108.000206240264,6473.806816755569,0.07398888420190508,43639.59050580663,28790.680644457767,2423.2170960699514,31699.623530565936,30933.428323983408,151.97390252598245,10.572435048752329,19.689152919740827,7243.099487150424,1695.9720037313766,1174.8265578186492,1,High Risk (Failure)
203.07053994625892,17866.076297642907,24686.839712264198,0.7741346587074271,49754.38620181887,13993.521737563078,10933.841469647392,42550.4766105708,53715.94189608441,252.24071994850797,9.268906938333858,23.266964176757394,6995.362461879236,1041.12563821262,851.440262136801,1,High Risk (Failure)
217.57459183397353,5829.61689142083,24330.97101477702,0.11346050152476905,35289.87861592967,22180.37602952787,11015.526452620721,22872.629515320394,21453.487924929665,256.59566935083865,8.37303419527495,19.327701989938987,5601.2942136889815,1721.6726547069447,1189.0285964634722,1,High Risk (Failure)
61.645519349710725,24373.133731457663,17389.761805786628,0.8248362771537581,34987.59513927621,25403.19039743941,13249.75278142131,28128.676770930426,50065.358522833434,210.57098283086168,9.178039872744389,19.69437557761042,7760.797303043643,1975.330693972568,694.25972710115,0,Low Risk (No Failure)
61.808405854243595,17147.552151081465,28076.93610624313,0.4119226278941627,54388.732054056076,13723.575549941286,14406.11128621249,44065.124147693285,68656.75609882874,149.58493654976118,8.902806822793657,19.076120482187278,7652.107640444502,578.9914055630954,666.4824079762652,0,Low Risk (No Failure)
106.95821171329946,26744.794215478953,23770.015418947794,0.08985791800004683,47919.690714235476,16645.965972981146,10605.343882168705,35444.15780985936,29114.09582295888,298.4916855384094,11.575919355077389,20.122642416214685,7394.348859715153,741.7915634854405,762.9938769536707,1,High Risk (Failure)
215.18592737716327,8796.984804391192,13887.672599503523,0.39485367440367836,36396.77127824791,27700.290686605375,2896.5725262459237,16401.26574299338,58253.15513650729,154.62980772838694,10.834816012416276,21.050887821102396,4851.090283027206,1449.3488939683298,1041.6805844305527,1,High Risk (Failure)
190.31495721422974,24489.3835668207,29420.502065597902,0.8299579189553186,28875.994765302814,22357.356953573653,7012.521571926845,69766.24531561274,35360.489257696565,233.34131298548127,8.524712582079779,24.792097872365716,9028.254377371559,1598.2889651584435,1187.9996211440641,1,High Risk (Failure)
92.08395627205388,18967.895191985517,5746.276460438164,0.7365572029698445,31194.51055502254,29416.26389146169,13057.485483410126,23306.431459331976,59276.82322736742,122.60323681145194,8.159006046119421,24.459060726689014,9257.725623713974,666.6788631706552,1209.6986368343744,1,High Risk (Failure)
122.6441117084527,18845.087378228654,12340.585643698178,0.9576564743886975,48751.53440761068,25239.503011421497,2387.0771228247804,10719.80074376054,21516.657271781452,201.2158694427854,11.574435543404931,24.892384889849808,7585.07751216035,1708.5637869512539,1331.9758503177795,1,High Risk (Failure)
73.05198809781855,1979.8853774992103,31022.123396737028,0.2818937705993324,22718.453462393034,22568.219576544052,5756.945990234453,49697.768162899265,25292.31167845802,131.02484714920774,8.877210861572003,21.76429094133759,6539.869665139044,1711.1656346322636,570.1120247302671,0,Low Risk (No Failure)
66.78756771310267,14785.412962745188,13558.931626706846,0.8790319718764711,33360.46041738915,11383.58590376227,8017.4085383292395,54792.19502884191,31279.040531896102,143.7198756223017,11.983860121862545,21.55768685088964,6722.567674467264,1443.7157662913385,1459.5589837983566,1,High Risk (Failure)
170.12387772483794,13301.36661663331,24647.83204316408,0.24382385260040484,50603.53945034849,19314.77285161145,14661.261882932227,37903.866034778715,50587.79247424524,160.18726035047914,10.375602146861228,22.41288087308961,5828.227938307149,698.1615833852495,737.3814932084617,1,High Risk (Failure)
165.5504436688759,24510.89951541007,26890.604173829157,0.9150557297761545,55898.31200470447,6095.74613611102,1840.9098578080263,58425.24996104601,10981.584370563065,198.97060206866956,8.690225145588673,24.98268219098099,7602.164803537173,1795.1743763613404,1028.4824290976942,0,Low Risk (No Failure)
152.4210806951076,21570.11454930102,12627.572078436315,0.08546602296514749,57591.27731838511,23659.02270658674,8445.751524686988,61416.66376836999,69571.2750079319,270.7282027060823,10.801062389724112,22.011607282420535,9594.266193476273,764.2587155302767,531.8273683871065,0,Low Risk (No Failure)
72.63506595053258,20195.14571768593,15011.445454273788,0.7761299726143986,50695.78649282558,17406.941476435055,9498.84375092696,69396.6572686552,59270.804222103885,173.1716172505096,8.119808429454658,21.64461638268197,9181.848557855195,1737.7575056710643,1161.3030882480143,1,High Risk (Failure)
113.97528748305483,3716.06612561676,20638.124206756074,0.5911847871160733,34230.13754595228,14799.236558747925,11620.28038537737,11134.043639885047,57371.29722867697,135.91905627992398,11.755706806424914,22.775970594092342,7414.573210583195,550.163977505178,1321.0514152415885,1,High Risk (Failure)
156.69749115436338,25077.255590660166,28703.285368012836,0.8521327196193863,47819.4336524681,19271.210773491723,5715.701828505263,69619.86052047362,37382.06404188888,225.14874974902096,9.432068244337637,23.632704975875544,5862.88253875004,1184.057002304039,1038.0046487133964,0,Low Risk (No Failure)
92.04512285882015,20762.357762997966,24613.985280008503,0.36689566186537503,58694.39933566231,15209.492015786895,4331.442348980132,57798.52716710729,50764.296579817725,114.14335690775377,11.06422228885507,22.6062404134151,4957.526315328325,587.681517695323,1484.891202705851,0,Low Risk (No Failure)
119.04848348174666,8786.502209727365,20014.846852298415,0.26348337714290304,22126.825378461283,6049.339206905927,12496.853914016092,23015.707471959344,14797.230466098357,286.3906245424615,9.183628360272873,18.224524264524206,3140.0884673169903,805.5880408849231,683.5576468932395,1,High Risk (Failure)
146.96611477482338,6950.427144239403,29253.80868431445,0.5261828101048603,55088.923066609925,24348.951994577255,12770.016421918208,53774.75531707545,54173.062932580986,283.0174391123794,9.533202639037437,23.206000150387013,7017.710129687414,709.0376256474611,884.0930697874722,1,High Risk (Failure)
159.72770029240928,4078.6502528765495,21708.56274992526,0.4698899080414396,37824.61567551404,29405.240144910822,13939.58017013201,21706.475903537314,36393.97057500132,110.54757925781436,10.060837565858812,23.15318311327727,3915.5324588954236,1572.4572254549917,784.4294331338906,1,High Risk (Failure)
151.8185359483354,17764.176426360118,13944.289134444207,0.9016441777703094,35986.38534746751,28383.607716441704,13426.267875443406,46063.06217373346,51562.8078325748,161.75347320066365,9.937443356077086,23.7729225573282,4343.017213315453,1533.2233081916515,996.3123796693958,0,Low Risk (No Failure)
183.22531388113535,2425.6640454963963,9226.55361711196,0.41734147326632576,49598.487181041615,23002.777971871663,3112.087396811877,54080.354148776074,49037.13492534989,294.0659152559556,8.875230604027351,22.440979084960638,7414.058171261072,1915.784858903801,643.1001586402681,1,High Risk (Failure)
145.2187626328037,18046.15503177886,18318.348809801566,0.5653851600991959,58708.271038782186,25322.514941768633,13332.272910788646,19255.950117796783,59813.01297703164,280.3817687641279,8.259170557698305,20.14423310830815,6296.2125791826975,1409.4870475603293,1363.874968843984,1,High Risk (Failure)
60.21658011447491,3098.915402629552,8662.562649536982,0.2890497329457792,17464.369988662147,19647.474268775997,8993.060259267768,51246.18398660759,26752.530264837966,127.39392131182422,9.392289901628692,21.929390851959354,6441.459424521214,1434.652418551979,1263.7417273520246,1,High Risk (Failure)
209.8927582919613,6826.428850880151,33396.91528936231,0.005212518476924943,46144.742901626276,25415.20878386791,4666.034673217536,68667.53895699375,21565.57332104254,244.7698877391104,10.945977545205974,23.311971020068235,6160.392672505301,1205.8193477970894,1245.194807658751,1,High Risk (Failure)
70.82693790400026,22156.121237316715,16880.730389070384,0.5707687965859014,22316.384029340108,5920.812287868827,10944.136600515369,28913.260808243856,39256.57299354402,147.1487332300137,8.949883356630078,24.916344121515507,3668.846871262379,1416.378255619805,1239.5263929694877,1,High Risk (Failure)
76.23544685856514,24253.36488513137,28656.555260247696,0.7955633625022697,50235.384297217206,16888.988869578345,10209.933346789505,49260.35877768343,18960.754296674666,298.3015798949094,10.82545890979064,19.935417494113256,5820.294339366542,1648.0323082596267,1452.6175517984088,1,High Risk (Failure)
101.2171552533955,7242.070794527657,23389.32024768081,0.7330317809458987,52214.047236781385,6755.398071518155,13178.033681900359,51427.646527491044,53223.316317965546,280.647215738754,10.824216963484687,20.248893885040044,9077.499818413675,1499.0123418311937,761.9021837402263,1,High Risk (Failure)
186.1755537959249,10000.755784135481,26296.863001443606,0.016058822680113716,41406.4487685899,9761.670587446253,2180.614537748505,33003.010643641304,42270.75578043586,259.1876833656036,9.214965857813446,19.41845980863165,4719.727779891928,576.3478143763995,1338.1356177314694,1,High Risk (Failure)
70.65035646627565,25401.753038731098,11598.029414917437,0.6594796782867858,36862.051521808535,11023.139811789453,7481.437416230079,52877.75735118039,43539.37469479611,201.79858992662867,9.475684389271034,19.460599754403113,6981.387268254983,1944.614845083051,1164.8921890525385,0,Low Risk (No Failure)
62.91721322821786,24173.38222738668,16447.231634765536,0.49041036113680525,31751.63888526385,21737.109020201806,9953.026625392025,24157.817557595794,47205.52244513669,123.36570441526094,9.222838300106224,19.043239912816006,5554.310402182439,620.0594725636714,979.0229959973307,1,High Risk (Failure)
203.7686701643327,21812.608576011487,14643.874338434134,0.19197550585923784,21591.184203524263,10484.917764089401,9701.941282743906,45266.46941013554,45358.48867154922,111.84945254964917,8.877653223169293,18.913220450405447,6000.597810712896,1221.4176678341028,1483.1622132676262,1,High Risk (Failure)
97.11153537855607,26569.560119518956,8269.148879117474,0.6985982867270393,56850.85764687731,23411.684686250053,11116.799010351517,25518.230072085622,29331.05886928343,190.1779230189734,8.716602410292369,20.56264668350045,8061.542801091855,1785.2356684811243,962.554482979551,1,High Risk (Failure)
113.8566845110273,17373.228357419324,9972.470461653647,0.40907603456609554,33312.9202113415,25064.297632375707,11740.394147231264,42356.04791331875,65970.98804612235,207.0336608039097,10.913376636312123,19.891770919763925,8442.780160816445,1997.742315451675,1261.8852459781747,1,High Risk (Failure)
154.97479256864779,1771.6426162528398,31743.61619434248,0.8092458367534826,17853.08954729129,28496.398972346593,4174.042841197899,32941.67937787407,17742.060292374113,212.80898869400875,11.445114048999985,23.433810824747837,4926.0348461781905,1261.4848313301363,1319.171328932409,1,High Risk (Failure)
108.16737245349009,13198.276869485762,21304.683731259014,0.8118107694391947,51031.115860842845,11969.568646828262,8467.449975585752,56677.638037334604,21338.433447827352,149.72633526104735,11.604348825362575,20.628682878774676,4217.501022035871,1472.967973503119,592.6125880246979,0,Low Risk (No Failure)
153.33900241554554,10190.219993898118,32343.62010364518,0.29380202881550743,17855.230239447163,15568.948020852584,8030.756793389896,55813.87732157238,59132.653068202715,111.53386956556935,11.24419754387597,20.72343464463761,5223.206013780454,769.4616356049509,910.1506665261754,1,High Risk (Failure)
66.90558591209218,2766.2607538202988,29177.84460246076,0.6137064818495768,24009.719868802582,26438.967659067574,5530.927356747703,16511.031232834488,58642.665934442935,112.68213649713799,10.07226686013431,19.027161725947106,3184.56228011396,960.996244652307,1210.4730236683354,1,High Risk (Failure)
170.94754048900944,28663.703311554942,13884.634047915739,0.1901538629126105,52853.49172820612,21032.00187465114,3198.0337590074205,66009.47020213674,16169.061653746048,158.2404513425471,8.122685627717297,24.168993686637798,9070.97356218704,920.365089494677,1408.0401945431395,0,Low Risk (No Failure)
116.09400940905552,27989.495411309552,6397.398262596248,0.2672072767565691,42468.504166214974,13243.827307194138,5202.530326665818,14593.81687989414,37389.50167223092,198.77697885266517,10.64091136064825,24.86550895698242,3387.1908805724343,1337.201715265841,591.797065702463,1,High Risk (Failure)
91.3993146729865,13845.176530298644,31649.77444107866,0.3369831224412506,21709.40525112277,25010.000532095717,9360.441030592685,59659.800549071864,61116.571613127206,136.81453190277307,9.781739741237613,23.948949659194998,8607.68852035463,1981.840406122418,1276.9788180968303,0,Low Risk (No Failure)
76.10199656376534,8840.109124371946,22884.141850896045,0.7864448231944233,59882.21222214163,14892.821748950731,7639.465215603774,34095.25512815926,54530.404254132634,237.4219388800492,8.002296046670008,22.702780908795436,4964.478823997371,1469.8742544112083,1457.9470786665834,1,High Risk (Failure)
85.51876200661732,15105.35721457792,16620.00262570077,0.17872012920589753,48333.921058138425,28731.015942178492,8264.519290489206,46893.990934290276,49655.13410848592,114.73477972420578,10.98256715865991,22.415232159556545,3822.997163923698,1477.2099034020264,1137.739983156946,0,Low Risk (No Failure)
133.56806780309122,24888.58939545669,17265.30985175205,0.9161510268144013,17112.931765458066,16814.247743126805,11848.829423321937,17120.269251544516,40926.80842876682,277.46629315336025,9.439579362151258,21.859465474192017,9770.894969462777,539.4503780582314,705.0095544343081,1,High Risk (Failure)
83.41983874595985,24293.151574078704,32840.26225323662,0.17532167837859913,32049.670623087994,6287.467048451024,10014.92686933112,49608.61117882476,62250.476580020564,211.91612820162644,9.756673631192728,19.367512981287064,8431.932006868758,1339.0745255983852,1307.915759812086,1,High Risk (Failure)
115.34128911247308,23699.624553290214,11202.399372207175,0.931922435685587,36292.42717053322,27382.88137678411,9438.162933770536,43867.77510367544,38203.89530150744,247.53782330412784,11.684913650162434,20.129674807667968,7717.665267255918,1061.9326346288294,925.9499193876957,1,High Risk (Failure)
71.66429365886457,21897.872429247735,32065.823551480273,0.08845574068553652,47076.25165762607,26180.385165770447,11294.15350323904,44759.4794534328,27771.463831145014,255.5940418649211,11.08548900855901,24.031939538215646,8055.083384816403,959.5291425065819,500.1712553679752,1,High Risk (Failure)
207.95097892457005,4877.17397758365,16636.955868551893,0.7747235933045602,56041.36154031185,24626.3608506375,3449.069878511049,31699.992229990192,10994.648301135292,188.78392566230255,11.542275096764097,21.836827061308927,3263.4967990441232,666.4852461641992,1177.3565396271767,1,High Risk (Failure)
158.70830694011875,2531.950923349472,30299.970646758124,0.0503629989933958,57505.34686120137,7154.470685700899,5019.8278155478365,22727.483779558217,24284.73054111284,154.9877449295825,8.368326161875695,24.831406517088233,6201.345390246216,1567.4234394872324,1179.3396714287383,1,High Risk (Failure)
200.37969150847286,29183.513738439055,29692.62587020641,0.636641035358728,17913.19947344163,22662.14087518063,4965.018778570608,35982.59187452738,42477.80373533028,281.48240413495057,11.335856585354508,21.784733660546213,6426.007168772718,1009.9533763797584,948.0184392570345,1,High Risk (Failure)
198.33017752362719,23218.55594590056,9848.481821908923,0.5330432878885831,32431.13203685823,8232.409279283935,1415.5924120525829,57879.56631948416,11718.678878179357,108.11592278104057,9.728963126428923,20.501890249475387,4426.450625939595,1363.649300983825,924.0115034111325,1,High Risk (Failure)
115.87353193802574,24141.943021357496,32878.41955057427,0.3787063575653773,51267.51999213689,15367.097145586096,12380.653965103138,19469.7413469484,56856.23570788984,196.58837357530356,8.087866313790324,22.634973370168886,5266.592489613409,1866.8581996086643,910.0451353007957,1,High Risk (Failure)
188.42292956731367,16561.617768649456,5112.352841338545,0.3549178403647072,33924.68696040232,12205.07408308208,6296.081734009797,69956.12111177895,58987.55104361251,230.0599345502284,9.074901941301526,24.435784233811194,6425.015760489063,1842.9220979047802,1420.8302408099803,1,High Risk (Failure)
112.2338093190387,7017.8333661614915,31391.615991806473,0.18081063503763528,28304.635732939416,12013.675582192973,10867.795972619726,50121.75576848342,65745.08923047854,194.60571205067694,11.293509339651381,22.37050683633508,5651.945815812685,1391.6804525830512,1056.7147997645109,1,High Risk (Failure)
85.60398983411105,6690.794168947813,34336.8796335838,0.9218787933693491,16064.446789424073,9002.988680901326,10173.217495895888,36889.94965598365,63814.802445388166,178.88909645895637,11.943711297908163,20.708327798337166,6244.572325634088,966.3685569051416,634.522689161787,1,High Risk (Failure)
213.2988814271094,1991.0920821915352,24637.544005743806,0.6298099857061177,32304.54806891422,26915.274263697203,3947.9249218804707,57356.24728373718,31254.120591753493,284.2048647965687,9.273550249868244,21.007050777366505,5595.539236017132,947.5309025926766,661.252646138325,0,Low Risk (No Failure)
88.68089790524641,19988.496787243548,32260.782989087176,0.2961743146016024,20695.426071629117,12783.06698370846,8338.632997784202,34350.93402412876,62600.2659557862,227.68601927894622,11.153100054067515,19.759676373715575,4986.170540588373,1559.555502382692,517.9173408386259,1,High Risk (Failure)
179.81221391412902,17848.08901231618,9619.230534970517,0.2944307779494544,46413.39159292139,8690.879628037124,10097.525420360897,15669.12642442475,46498.064117025955,132.89779081123936,11.49735910050142,20.984820277708348,6097.361665600817,535.1529099058832,1493.5573092939326,1,High Risk (Failure)
176.15678559764729,28781.40124421783,23890.179555796618,0.6668952708703423,23204.794314978208,25525.516781790182,12232.454534379913,41889.47793187083,35487.3842498032,132.28083601881914,11.088505076105239,22.683835904203164,7507.483539934108,969.0657055499446,1182.0520629575765,1,High Risk (Failure)
178.07215158361475,29912.72458156398,6931.246505451189,0.1295857300099844,24347.198477611113,13644.105445538453,10882.350700779734,69544.7309894758,51998.20661078568,288.98899422413103,9.322698122571618,20.53701244268563,4327.289351884758,1447.6188939145886,1361.4829246960385,0,Low Risk (No Failure)
177.83107769995564,3563.512047255993,7657.045214752403,0.11197297048699328,23023.196773644857,15425.998974230813,5789.028394567221,14034.887541977136,63803.42450882416,229.9999405047391,10.529133778141137,21.969532634632884,5957.389966647876,835.1178119009255,759.8429844307545,1,High Risk (Failure)
73.55013470004909,9753.205165893958,12246.284381479338,0.6180374805617743,52231.601011478466,21576.777797855644,3683.972626402111,46814.108221127826,69116.79684574263,163.632267718314,10.034126426445209,21.649412607643477,3771.8944166911906,627.1270059620562,1354.42950440317,0,Low Risk (No Failure)
205.1267136664035,14486.02441718951,31672.887281487187,0.09809436624098145,31681.598127661473,5615.325140085657,13097.734324964853,21676.798640529567,52987.92264375787,104.08261864503186,8.452751288887425,22.067148494384355,6537.372510645731,634.3100196593861,931.6522112623795,0,Low Risk (No Failure)
76.21966360850547,4169.103915676638,7965.99015368044,0.2530844032214269,33464.19981632504,5254.345451686974,10663.432278189117,23442.378599621057,58836.202312782174,285.14275620154416,9.654932085370795,24.95614707908884,8204.75253605682,1762.4398694198178,1232.6306062421622,0,Low Risk (No Failure)
175.8446702036674,14619.973451597083,9816.734322895107,0.4974113794914262,37463.258600478985,13609.370410133599,8043.187136631655,67965.40750240466,20949.91685185689,287.3629419861867,10.404124446011723,20.812299870926402,3659.0909774420293,984.1770307068552,950.3536081375823,0,Low Risk (No Failure)
77.75969580661038,12858.889836943488,9033.711223011933,0.10782367385194702,34421.79347689512,10880.268105302075,12548.391675529476,51959.40370560141,66041.40286538348,299.19300741018446,9.929122369877636,20.02516218199417,7721.427474397932,1059.7230250169962,910.3655989517199,1,High Risk (Failure)
87.89862864079863,24683.00205284708,6945.026563585737,0.714317970610373,20896.89941154446,27063.82158712753,5678.890185637718,45408.32713373432,61021.286966416184,280.0116315346273,8.980366871757196,23.597269567855644,6175.334787536902,1956.3600977848948,747.7817700933717,1,High Risk (Failure)
168.4067627934325,13018.46456154406,9523.784474970544,0.12481766904184266,18433.209449126094,28332.526205879865,1938.5522447284675,57920.61197862163,51304.70963692339,214.46442848924784,11.49109783857968,18.556416910356283,9400.921417175654,1430.4260349560777,1332.0828028753476,1,High Risk (Failure)
126.37112037402643,19529.927637225253,22476.61511125982,0.7975655525345219,58958.76609584537,10463.150018869079,5339.638401441013,55025.236925023215,48235.38562420561,103.56356889405909,11.72920332988865,21.286980738280896,4643.230056209302,604.9009362736554,780.7650282290359,1,High Risk (Failure)
117.0553881577929,15386.188876515404,10085.604809883871,0.2690335487759109,41674.682388436006,18179.545908677508,3259.148121361164,46234.25173362862,47081.48669416919,186.20771958600238,9.617478720437827,22.473622856207633,7141.818961640792,1969.002506967967,1029.6762518057662,0,Low Risk (No Failure)
108.76017526178133,18738.01459373441,18286.115183176713,0.3818390965611267,57486.79091547678,25915.93180537307,13463.123588470608,51026.01807186898,13541.8346102592,236.90256984043694,11.062241050285248,18.894250716237796,4018.074836467035,1257.6910503148633,1275.8873761787208,1,High Risk (Failure)
66.3026933908511,25742.01638075495,15521.55528362753,0.850930827433241,35547.04158926171,7201.0251926078945,4043.66719639448,60920.19066006316,69618.2306565032,252.09866302873678,9.573984891196181,23.238906125207414,9689.434924838153,835.2773612603496,531.1406041223574,0,Low Risk (No Failure)
203.6696469509979,16431.4212013047,18245.202298675133,0.7530863944413293,28603.495685505564,10223.016942377199,6732.079765331764,48700.28026439715,59208.82393806655,231.20526390358083,11.65786004262334,22.24964566117311,9661.168515134797,1371.706887639697,811.8968672304636,0,Low Risk (No Failure)
63.870682222616836,6768.9636140561115,7849.599349319364,0.2947916840075093,25922.964860239706,24057.884791770543,13030.797510928409,23613.89458705735,20619.771483426717,248.59380832683226,10.161741574354853,20.388940747496353,9087.788501307725,1349.9434136639052,1272.3747760369497,1,High Risk (Failure)
132.52621355968444,16022.445118347072,15185.867573920797,0.9853447186873107,35107.85645093836,5004.871558432928,4333.666018889068,12727.91127263214,32815.7215606981,169.94022171388391,10.385925644786585,21.657260239839005,8027.536772882486,529.2129864794516,1141.2641068917574,1,High Risk (Failure)
158.91489013060178,20629.295998999718,24253.262133230335,0.5955026005728078,36085.261926003564,16912.065854367866,3775.3309580784107,63921.2336366444,45864.40469547472,187.74450344095501,11.868347879827294,23.392127698628105,3947.375456279173,1359.3284523928337,1337.909474435491,1,High Risk (Failure)
78.5716224811066,9793.373731483265,25819.76325167827,0.6991931979813764,31104.983882656015,28480.312332248966,7208.5200205948895,61430.149858571494,57345.0548758721,296.70831570430096,11.060204386145777,18.588271223475726,4306.1234039453575,1219.6512336134147,847.6714820955897,1,High Risk (Failure)
189.34357569863377,12012.384739827814,15343.607859636097,0.8073143007690523,51572.85222442136,18926.921049360757,5744.507928700905,13301.454134279997,35512.874156000515,220.07111015663327,9.581562809004483,23.845622522347043,7135.044792275787,1021.9478443583831,785.0337830826134,1,High Risk (Failure)
86.7124941995518,29524.32169242445,21137.690938036572,0.639601748513116,57142.72414058304,14414.008289060444,3389.2171987759125,22653.061214926653,62016.33104757343,257.1050595533146,11.855648836691284,18.960828502954346,5780.576587154181,1325.0918864011417,921.7579976302779,1,High Risk (Failure)
161.02015642294026,10538.673568111008,31175.615505385456,0.9535568067200983,48202.229730470426,18201.303435887807,7035.871495509182,68117.47403806352,63825.4456451677,154.78350702919457,11.527752983076754,24.740377527936282,9248.92731759683,1539.9189990674095,1312.4854885326315,0,Low Risk (No Failure)
65.84794685569518,5172.408506303625,26261.85739714699,0.8509063221509997,38194.01016031109,18373.997898345777,8334.320348619269,69458.64242923787,54867.02051292256,116.2115052833349,10.818004926992208,18.390008638134745,6867.8394430280705,1587.6942706230707,656.3912605277535,1,High Risk (Failure)
96.36314036210423,12913.675471455406,17471.10734854787,0.3951248847745673,47663.91198719127,6915.946878864469,8153.283385074822,63726.24313001891,43043.92874031697,245.34733378806294,9.297291105058854,23.81765422972882,4229.203024852155,1252.089567412192,974.4591229539643,1,High Risk (Failure)
125.58478235140612,12591.8669782584,30414.723710093233,0.7661763994699113,34286.667319282715,19141.189084384936,12648.923656749259,45100.00375015234,59037.06697816118,282.64246879559266,9.46313496775161,21.73712766852978,4862.634007835882,1868.6926835321194,1429.4041996488015,1,High Risk (Failure)
108.67875887352604,2203.422439787285,5208.727619098737,0.5115195574628737,48381.58091699318,27182.400262605202,1362.1391441558826,23149.082346639112,35992.62410287652,161.95270567841624,9.292636813734307,24.237759597387743,8031.823282923706,1442.834214070304,988.8343564482747,1,High Risk (Failure)
201.90798403348313,18371.320282193457,14427.245614985148,0.32772695668207097,17646.204024973715,12435.478105727474,2088.284893474264,68818.26272368956,58793.8702334525,229.06898808141636,9.227825212339164,20.00233317632438,3212.8946625501344,1119.3509138870995,1217.0581251923095,1,High Risk (Failure)
210.33097424402652,15356.62242398296,24493.72182537874,0.720883074508124,43320.7665769368,11534.177312210057,5125.86181054076,38224.02517867169,15383.180948129255,255.4722440257701,8.786554233746017,19.471087948987016,6967.224432127831,1051.2484146549994,577.2151530943977,0,Low Risk (No Failure)
193.14146847323872,12814.828559285877,6850.408887592864,0.4762328135171624,35579.39802948199,28141.28017333149,1473.4862044217643,59286.377897643164,57976.71476943098,138.67563566534605,11.936542789243871,18.643084908516986,9062.768035970294,1750.4371330071733,982.7727532503181,1,High Risk (Failure)
86.6053390009727,23322.211130609525,21711.977980517513,0.5377707777946096,29244.785976493076,26371.7256195819,10428.102620988593,68672.13308765004,31519.87686097545,133.19277838673165,10.80170673457622,18.335861166327312,6325.576720263433,731.863921068145,1133.2152935116367,1,High Risk (Failure)
165.39324408014016,14533.811519095061,30107.72989727876,0.7068443574290983,38040.03854763719,10485.03949093453,9274.389143427752,49335.58183172912,44400.74850519827,226.2584933040424,11.52317263982738,19.28162294096166,6328.53375274795,1691.6512315329855,1429.5963718255848,1,High Risk (Failure)
175.2614397738313,24700.518800638165,34527.49299473871,0.47069121764044575,20425.60576298018,21005.46665478224,9107.475613430697,14825.74720398055,40990.04836342548,133.59429343498536,10.83486785564142,23.281523893710478,8903.082902026004,1761.9324244123297,1182.3984298751875,0,Low Risk (No Failure)
73.23789369891038,24288.320215600517,22476.55089153801,0.4633834858663197,40799.78216750236,26431.91590103224,9420.909329594535,55743.8486527689,16107.358690260467,292.29546092363717,10.937879928369448,20.882490901778546,4226.51395296562,561.9745927507437,1149.2308398156079,0,Low Risk (No Failure)
200.68472898512107,21244.15581588082,31269.601630237576,0.6738985378607202,34789.388776279906,28032.944102286434,1836.480474529364,21605.260770013017,28344.89547092048,263.8759096131514,10.913173952460133,22.925521678323417,9012.550772098346,1011.6561836940066,547.8313332031481,0,Low Risk (No Failure)
170.2216483280145,23249.768430617467,19718.290649352184,0.5040951146760274,38958.91509899869,8260.097124508726,1388.6269690897789,10259.998988966934,39833.7220437089,293.46213201897996,11.356280695460619,18.920405496741818,9463.24002518489,1121.3889676043173,1434.581258803361,1,High Risk (Failure)
97.37077777097775,18846.621886567955,30767.369782869242,0.6226878136965482,39220.77517112103,10502.24830217292,13289.916950165176,61509.23763528607,31561.99605304004,236.70133693906226,8.816485424538758,20.50948471956635,5055.318463938087,1483.0119441446495,820.5022693971232,0,Low Risk (No Failure)
123.36015462169843,28684.49190818758,15213.520866308172,0.2820676245442767,46527.97785718625,13458.156757207495,13521.652116461628,69061.2320090242,64205.8391401639,161.6733910100064,9.799468040384687,19.45141383769193,7517.4097113921,976.7276391878687,765.1553649312341,0,Low Risk (No Failure)
108.67179514180494,12448.484186378802,28589.286581308395,0.5785600551991199,50437.030588321824,18810.26116788815,10802.938513987803,69458.728956572,20484.401537913836,164.60137409876876,8.999641522824742,24.30922022916824,7772.496375894781,1111.7035961228908,525.6032916623312,1,High Risk (Failure)
104.90931448255589,3261.8221258728636,17310.12783007313,0.8097840267383138,52910.43919676315,25607.246888111305,8250.781197910346,10785.54974193083,15315.892175165565,292.48268039794283,11.835364909099724,23.411607344092758,7212.273121421327,1746.0099645806877,1257.8490106529152,1,High Risk (Failure)
157.1416449413723,28840.34454375464,19890.93117398921,0.8021164471629001,39456.37141729635,12018.273428321005,2563.4525570906226,14203.3895649876,18993.092128262208,238.2799843798992,9.90295037984212,22.623500537388285,6022.900114649116,1279.1271448872835,814.7914377361375,0,Low Risk (No Failure)
180.12314387376892,1268.0060637599167,33236.58586236972,0.1764266966024014,59005.50212787849,18458.514970261065,9214.034433377272,66173.35914309017,25218.05922542936,170.4855394895863,11.698295614502037,20.965162052727514,8411.290911487347,1760.7287543700768,1004.4487902292781,0,Low Risk (No Failure)
128.55326461580728,15321.563427505278,32930.85788832688,0.5421956448860736,28871.609527717148,15398.048450735747,12614.09470055867,18867.823682515642,69897.34980939311,113.00045985998793,11.13668003622448,18.785859639223023,8222.194443877712,1902.7864117473487,1279.552380503425,0,Low Risk (No Failure)
181.57178534854214,1856.7170897333049,27081.620434483688,0.8714520646188432,48314.78181399114,19278.417736534007,7857.916425035244,31717.716173748897,64894.914508531314,150.72355742189507,9.888358585743713,21.3984068855041,6386.058482182887,1355.4685158766376,1239.0038045601277,0,Low Risk (No Failure)
71.6930499243224,28168.749472639443,29713.928463051026,0.4482388465553965,35334.71221429194,26262.25471456409,9159.385824973997,19190.134928771597,68283.4694173396,120.29757253099993,8.94465436294218,20.92206968301142,7173.714047982105,1878.9238729540439,1221.2946202659195,1,High Risk (Failure)
71.28570201487305,6800.2587122696805,29278.437931142995,0.07174796422571372,57057.937815925856,17600.011261683438,10369.500901373587,46506.51191383147,66435.9111380428,116.62768861620486,8.256208821928155,19.849345286589344,4909.58312316943,1438.3352782890563,1467.0446294744156,0,Low Risk (No Failure)
210.57933000538776,20641.81481964609,34879.731528383156,0.7687292280120813,30866.940534513888,18497.832421548977,3395.702711564705,30247.448941503968,35285.20576822513,221.56634866471111,9.143173409222562,22.523625782488246,7372.304589958359,1824.7528095329635,970.2567828472709,0,Low Risk (No Failure)
77.70107791283316,19362.181571977395,19173.863417446715,0.371119691218732,21520.897818277786,10109.990471898484,3392.4185005950817,54061.54269818999,35072.82708161767,213.64049344206774,11.879946064976073,18.078177857091706,9503.457519957703,732.0880353050063,563.1442833322258,1,High Risk (Failure)
132.05615662486602,10118.589068530757,16750.84326532518,0.6969923315984384,36900.08776539781,29308.291961557283,8194.905943186153,15391.768067050605,50791.78448383444,123.44231010606926,10.394746550672485,20.726710132323284,9375.06785287191,1494.1776971268364,1353.524229889172,1,High Risk (Failure)
61.944715950370615,20929.795960359803,22162.99450914875,0.05473963590993691,32290.3742117707,8699.838110760224,8635.141537371352,54546.811529062674,63314.4390856175,283.94447788439527,10.786018480187838,23.81742702096829,3231.229666446672,966.4472148102075,558.2767789291482,1,High Risk (Failure)
113.56624670250866,24374.478633489,25706.323300984037,0.9945655682085767,48412.32272283142,10817.63022347809,5926.530162178867,20825.86206940342,34527.68038048486,264.1843745747211,8.226825595990723,18.593785599569294,8955.701615050035,1761.4043969596426,643.4944880728174,0,Low Risk (No Failure)
125.77529641611305,26103.706054809227,23728.71202349809,0.9688424070983915,40444.923008180325,14598.786644728474,5315.967772991161,22843.44328016437,14742.060724070408,285.60437112764635,10.30328009149761,24.48405004039612,4039.7358047785588,1786.26104958219,534.4727198916556,1,High Risk (Failure)
196.22799323921532,22946.887464169515,15660.19124658641,0.15772031708324974,52818.29950036714,16875.942719259663,6455.0651115544615,34305.0470033644,49249.08164555586,158.5738391751628,11.498095942564536,18.409068427059033,9170.66506595162,1717.0969054378277,828.7149866388731,1,High Risk (Failure)
84.22917029919412,20247.429888861425,10155.036707507486,0.04384701871096319,36615.37093000021,5289.330162236471,14806.283548515576,53080.18580115894,59480.70608535628,162.51668660525638,11.369640182674674,20.477920110747863,9991.766678492684,1340.8836931202313,1407.1430684415634,0,Low Risk (No Failure)
198.02247538386862,25320.032089743647,5739.681671206787,0.03291079695493926,51894.461032173516,25364.663487633537,4928.480374671517,25775.57601426279,25505.940083956004,218.54575692951184,10.553520349281118,24.032450806716096,6048.911055775217,1504.8960898402818,1375.478546098842,1,High Risk (Failure)
143.95770202582915,20090.229719358562,6194.17049666262,0.7064764872194028,23971.412928622343,10309.489102626754,14856.43944871091,43286.41970661884,64269.62174503929,240.61984999236867,11.897656444172522,20.196984305700088,4938.244761288828,1277.695152643209,949.059565268353,0,Low Risk (No Failure)
110.500375002136,10927.68839136873,8090.575833266183,0.5694918385200097,30606.099890460166,10028.3777669133,9914.446284759897,49456.06863550889,54346.79540025998,157.0962277796773,11.191813730799879,22.597119117836428,9283.320168569342,1410.5838737481326,1486.8164971241347,1,High Risk (Failure)
150.45284073145757,9244.36038376832,15160.388133710929,0.444829257597959,41626.0263184399,6666.519081946724,14579.145500375718,38789.916979848385,22156.0348716637,127.10690180686859,10.688860318369422,19.012131432415266,6282.493304606333,885.94554231349,1287.4108329531723,1,High Risk (Failure)
60.698123144049454,10441.852843051332,6925.86457993443,0.4618644590001696,59347.33221264385,28976.005411181177,9055.367117758928,62911.95174025113,45204.07509714005,241.13796088542026,11.347295831717762,22.973094187631904,9578.410357642231,805.4026257721957,982.6449115436703,1,High Risk (Failure)
199.67133374022532,26299.44233728963,22737.287172518423,0.4722634607952153,50503.12507546557,17281.581402030293,11678.56139664682,10264.608038818618,16159.888092295378,139.42354444196326,10.30998218542547,23.093601870483283,4581.327730470264,801.6914454688515,1489.7180818337542,1,High Risk (Failure)
208.49338245216796,5622.451658370664,7799.843608094792,0.037231201752291776,32538.488263213872,24297.191125073616,11302.648032207237,65745.93164151502,20903.77061187958,173.24255970703675,10.089926569280475,20.147369812980564,5306.284345007335,1658.5550425212698,630.4662751185359,1,High Risk (Failure)
198.97586051031365,25891.365227486884,15815.987535549433,0.6298837036711994,55108.18170165287,19074.230872605072,2401.393179861546,22259.47968622166,44319.15248456399,159.8454900278993,9.99322728493066,20.822849281979067,4852.615206605252,1643.2391356701846,1133.936292501929,1,High Risk (Failure)
98.90755055991265,14082.7720241374,7396.810633740826,0.9338670398513198,33038.84307688712,15465.374649371384,6508.137085278979,11033.519642075562,36156.09428690374,250.9934795211927,10.594882051454485,21.938310889726544,3579.9302041219653,1838.2062256580002,658.0204751076245,1,High Risk (Failure)
146.60741364817127,23559.372795707568,8481.603781537067,0.33967843772922546,50924.09101935061,11282.872948968878,12150.486325390284,51700.59338530679,51685.57840260379,276.6637747423353,11.350164389901943,19.725874364299905,6757.114356116879,1241.4273820200585,1282.6380976922464,1,High Risk (Failure)
145.2006506265571,27722.274350279382,26865.024413669104,0.17218852755576275,58544.888916588934,9194.492652610577,3023.1793793133506,34896.16125454991,68288.08535668047,233.70634609884058,11.647533305024503,20.10759210536984,4475.511316363329,1466.67126138477,555.8774472459679,0,Low Risk (No Failure)
199.28431460310148,27482.972892610996,22422.832758567594,0.11988587082400426,55889.77514302728,18387.985497773505,11960.235016908737,63054.27678004192,21302.430856950512,284.13353834154,9.800240565135102,20.31175354183556,3815.0521272607634,844.7810158339978,846.0101476789249,0,Low Risk (No Failure)
159.21164094856215,19288.423554509332,10479.548562313168,0.66504811238256,40956.890441606345,27079.91117006816,11761.353405482923,56655.27360238817,69273.36801902359,166.86515665379613,8.465652040701428,22.13747258806695,8523.266511501979,776.7103822363828,678.274091127234,1,High Risk (Failure)
83.78603644049807,26332.493663111225,8864.392212889643,0.045477951306036934,57938.58286506536,17856.920613551858,13802.380251752813,40076.92594876045,27540.52766703165,141.41886843316132,10.153268200034486,24.142171216716005,6581.086079124637,1800.2789862755494,808.210091365009,1,High Risk (Failure)
108.63142419851582,23365.519643421707,17402.497255217262,0.3052643016074359,48379.176460093375,24511.70100387353,3338.187839384884,10877.870770313404,22149.68091463141,150.35464681108633,10.934987499278206,22.63383671074254,8414.2529018886,1904.395153449975,675.5692654413166,1,High Risk (Failure)
107.33185559944576,21584.336684898786,24706.79703964054,0.9832806025751739,39289.40192163728,10352.710293199896,6479.5872465145985,45614.859440374814,47750.42484023603,123.10405080637501,8.735488022607214,23.96159714664095,3584.7609663270055,589.3264761306671,787.8141840557806,0,Low Risk (No Failure)
82.29697185165186,3280.174618702983,30908.6900275986,0.039132254483859374,43310.49987025498,10524.54308332952,6264.48593432362,17891.11270115349,25164.16041595697,205.0010344124872,8.693048103764475,22.033212405806783,5752.761540191128,1159.3022957888138,902.1043341170895,1,High Risk (Failure)
73.9227549284462,28561.012792980702,27401.648050521864,0.6059089432132964,56189.802509954265,6911.828316101358,7652.705967704207,42531.08863741609,15212.269984149003,130.70615314395414,11.739555813547646,24.50917509469099,4925.778141694217,1490.0890164454463,1459.053622655775,0,Low Risk (No Failure)
128.39464450667026,8624.803181332265,19542.24072199076,0.31991363514030147,23724.437972676868,29793.89123761356,8452.955665940486,68706.4498364965,64977.864829394755,162.3783546309948,11.826092236906007,24.881330194386216,9925.49357262332,807.7820328597486,916.6281377914197,0,Low Risk (No Failure)
216.05490135665127,21665.440811653403,27427.23908162331,0.9007820001884255,37451.07929803092,28765.698174603327,7056.588961042169,30769.008875747313,69693.68779005957,167.4590058410286,11.457691490247171,19.63026810846177,4020.710538801227,1574.8156342316618,610.8980680492346,0,Low Risk (No Failure)
86.69763227180044,1716.2216328972272,33221.51238917325,0.8653743120928243,37719.45606460198,26819.318138835515,7359.06889498877,54935.72019285482,63251.195162591954,158.39546977938488,8.503168872445025,22.636546626895093,3783.8736726069055,1456.4180688677884,1196.3342719208927,1,High Risk (Failure)
75.91062284149523,24223.72489593276,29576.917305203067,0.5118277606625545,54790.743528809515,8114.188693865388,9463.938933558478,38046.54994495907,49607.8233370332,122.13656240709719,10.323086967675405,22.86345962307407,6011.742135880493,938.4412941598289,598.5172629730898,1,High Risk (Failure)
116.2596299583415,23983.653261018764,11486.986831729737,0.8358513211799543,23933.791067343634,20072.184725116815,11297.678818427441,67863.67530035687,28115.461269471954,190.16191514068777,10.166615796741862,18.18047581179434,3341.085889169239,1626.0640879724117,575.7363948544863,1,High Risk (Failure)
132.22192389274807,4576.236241183475,26311.62942314894,0.10150385830353548,41222.341595986,16177.785187044561,3979.385163461929,31340.55808658462,26706.382796241738,107.62563576162893,11.602634602429903,24.2013442819568,3395.3960296212613,1750.932250162928,1009.8348139075558,1,High Risk (Failure)
162.55448449580123,26818.774156292086,5263.242651857535,0.4946682822273434,45785.41218176455,23725.96638284098,7127.788054640178,50830.57402782009,65758.0599852394,232.20883001719855,10.931414059570425,24.97147793366468,8719.505059075194,794.7753330738811,564.2814915033232,0,Low Risk (No Failure)
154.31263831755155,22526.99712047801,34085.9762460506,0.4177606716245422,47475.8519688464,10807.19220020853,1627.7792499660254,15511.023978656314,44701.61117369345,109.28681212293327,10.630693375293296,22.28291542646838,7794.850314763454,1087.785512722186,867.3472472532812,0,Low Risk (No Failure)
163.94346383877894,23500.08689088082,28836.568832651166,0.595319545782895,23751.700382870717,24500.65161434724,12118.519508300835,61465.822175347486,54270.68262620725,193.21071487062534,9.617391160864566,22.409848938366316,9328.15113606636,728.3672971548563,896.3650614180963,1,High Risk (Failure)
210.8921340391532,27373.866257062302,34461.202627729464,0.6334320312819601,49868.712091349335,23368.461894127173,8205.289542387722,11645.746116757437,66556.01640152093,105.41757805942598,10.267097619881312,18.617947143802997,5818.747231560186,1429.5319338164938,986.6922737745972,1,High Risk (Failure)
84.98441557859046,8490.712444700173,14123.300220285106,0.907630953334707,29624.43343006888,9724.380034269798,4864.973515368508,38106.70377320617,34926.718980533384,198.4303938247453,9.590818819823003,20.489270375109356,6272.9693498386805,1250.6857984315666,1098.6195321350688,1,High Risk (Failure)
138.2477440718853,9801.793621465233,7149.51842694454,0.7974199712888259,27070.921192382608,5220.676211537571,11250.445068783521,59641.921211679786,19150.856997972493,217.1250381869879,11.510013345537082,19.855809033693024,8941.500689768218,995.2516476375031,648.288464720609,0,Low Risk (No Failure)
137.96245665600813,13763.50235856315,26575.89681540964,0.24637139862798185,49190.37545401821,26003.454109748734,10774.282515251172,51748.57187587931,37649.485833923885,257.3728299463355,9.613792921403181,23.84130449151077,6868.215125444012,802.3068945161561,527.8855285999341,0,Low Risk (No Failure)
211.48099915075852,16285.05721689029,10193.763174954673,0.4571205742680441,47981.14346262773,16201.735076133658,12119.610995307496,30055.124964916184,14283.826276092002,291.41337501248836,8.31415828339231,20.56902762110341,9531.945912542542,1970.0139194451842,1429.2574175986013,0,Low Risk (No Failure)
77.10030769515902,24344.038182568875,8645.335086129984,0.4506210479302757,36995.2087958123,23339.519722148452,3751.64769905307,56320.72761332371,57825.48903388482,106.28603153004359,9.297340551992553,20.621977538706595,6890.847019689028,1572.8183507998165,637.8911791953705,1,High Risk (Failure)
74.87850237170115,2147.1676903157813,31126.75371403418,0.9247859097140136,28133.338466246536,8346.927104086495,8655.27803892088,35448.650426770146,62447.14852588587,174.31145476922384,9.366889225597276,18.432486403855485,3855.847843647224,549.3515904343382,1173.3782483249342,1,High Risk (Failure)
101.54733423206623,20912.86227726708,28945.48968724529,0.253348364472859,29968.103994307785,27630.623088248507,4914.50501494853,46021.50881443234,22660.31671369696,134.08089399020022,11.336960808337416,23.33833594537516,3340.728362609484,1624.4980137125883,1200.8860034768013,0,Low Risk (No Failure)
95.32313804620166,24291.9448373492,12462.297988735467,0.6455339908801486,19989.627386931825,13198.466475899702,6388.669561273406,68915.21077082095,18309.735048838134,146.4108172725918,10.504023480105655,23.537642570597406,9073.022333335251,1822.0410798860723,1036.2729383947817,1,High Risk (Failure)
206.66163773459317,29625.90249179938,20022.658242229583,0.22099815752363516,22881.32852487674,17738.236165770693,10668.826615692336,36717.64383626175,14213.64745558504,106.179846587373,8.633727230259138,19.616582331651415,7196.720576163158,1316.906119145353,1082.4505335538552,1,High Risk (Failure)
69.22361315184398,19874.010564190514,25848.95806455917,0.321179258967464,58963.79232264836,5230.489855272567,5901.449946044102,44086.39978545766,24863.82024257922,290.7015049181533,11.526967533818592,21.491195191180047,5731.163966329317,1397.5504342274191,1333.9668053818466,1,High Risk (Failure)
127.52548162042224,14161.550350400435,15119.885933102443,0.22595271085325386,50072.68744098998,8652.599989391647,7356.97665329558,29780.673723120246,33790.13348287952,193.91456861748017,9.73623510956894,19.006378971813128,3823.0237679684697,1420.979325432434,541.5265979827942,1,High Risk (Failure)
76.71272289602422,14680.932972335355,11675.893474966573,0.6508383588369067,58873.85531713097,10594.10051019246,11895.82891596662,36054.60352594283,58554.50900800901,101.51156827883246,8.117804801221332,21.5549577529627,5545.687608718314,646.1944317400992,848.713139300588,0,Low Risk (No Failure)
71.27871130290315,19504.68904809712,11581.041951958101,0.8815310480420061,52403.458020740014,10874.825513500948,11932.096789381812,44206.23055541041,63590.70080137723,151.35014013484061,11.369570186604134,19.86433692184689,7441.244361358643,1167.8129340969167,1298.7177894418746,0,Low Risk (No Failure)
204.8561027129702,11758.237665172903,15987.590179954226,0.4512677953712668,38030.77474239384,12380.74943429087,11704.767887581502,12800.545168490782,56846.7879275347,230.43442666817333,11.446000385644496,20.95726589410549,3289.8581535682806,662.0200897448038,1049.6018693821493,1,High Risk (Failure)
126.42330463883931,11037.109982689457,32426.263690424355,0.9778470873280569,44797.44096126185,17057.964501689927,1872.003281563369,62202.21809186373,22960.596021823614,233.55755037122927,10.037062760557097,20.146697377232442,3650.1555792010213,629.2505079791885,845.1431994846882,0,Low Risk (No Failure)
125.79047613911857,14227.689059452365,10690.890945503848,0.505063784179996,31885.863310061184,7694.888041993129,14561.223162683136,65460.69733018608,24658.704996018307,298.61426889388974,11.678753001560214,18.665678499070513,6245.805207898789,1069.8741087814146,718.5158109135722,0,Low Risk (No Failure)
97.06747222135094,1613.3448771330723,24400.182594797156,0.9461737047963453,44986.94358865818,8013.045994801225,6900.950535740821,67719.907739046,36146.09847436208,189.1641863944654,10.662823034995768,22.80269012520561,9981.782097435627,1740.741560720455,833.1294820387589,1,High Risk (Failure)
219.4134265690787,15752.473542271733,26893.179120084722,0.9276142351480565,44804.1985998957,6348.778306852555,3094.4400279720044,69014.32010632117,65366.21550020879,259.0847621119407,8.961101441993533,24.378497376567214,5262.242725948212,1624.1352400934004,765.0908291024314,1,High Risk (Failure)
186.81521860614134,2096.7839600090238,21761.70224637657,0.9714770702702739,15444.953925761432,7184.422897669769,6338.733628442499,17900.138096797793,25432.772412246137,225.89778986464694,9.484234108042997,19.58848222406705,9225.987387124595,1894.764412350594,1116.3053699275333,1,High Risk (Failure)
89.54119317557908,7684.350283194105,14843.104275254653,0.2236752120549389,28903.940735406773,11106.372242262672,14860.776408847687,51441.64623750798,69908.42107210173,187.1632237986994,8.367449385369472,24.79467710232491,7923.45024332048,1550.0313688430942,1203.9959455116928,0,Low Risk (No Failure)
143.00649947893857,18493.178800885624,8576.85733453576,0.02748519482937095,26329.14594549391,16611.831548991813,13705.923430708894,67778.90665912966,22905.7630188246,196.19076451668917,8.80777368157025,18.21432636835409,6035.565728364567,1392.5056547173149,1265.8196731593034,1,High Risk (Failure)
97.95985399948802,18638.129926226953,28521.853394854363,0.5394265145762364,31487.67000216624,7691.060545836596,1548.6515025198992,69716.8364239256,34527.74910055574,285.1836177343583,8.768422228728202,21.174165292296273,5326.1560836230055,1398.5260901641586,822.0378610700598,1,High Risk (Failure)
93.0908629013434,4707.642372810544,34842.610641859144,0.15574975979894434,42778.22219061392,25469.102563783374,9551.956183147335,23967.425689192074,36070.20292171744,116.23395408946814,11.533329374099146,22.35487197500722,5001.115219705133,586.7740532382031,1211.3768832415303,0,Low Risk (No Failure)
61.93735603758199,16277.697815461988,16852.289761645778,0.9021541886529115,33631.25656899124,9134.239026350027,13378.311453855058,11998.723773477199,17169.147586073705,258.2077840751746,11.333082596765003,24.206562215571616,8735.428394339982,1785.553144963431,1076.5332640354386,1,High Risk (Failure)
123.61510367404708,4519.785811909971,26078.813189709563,0.1437851730161922,35286.873515640415,27366.64301611156,5954.692736143231,52845.3761526556,40291.6467025439,195.15935493635635,9.623622620249542,19.331344954692543,9787.863215804882,1242.7254064551244,1033.4893636426987,1,High Risk (Failure)
143.28701396877733,25549.97249877602,24724.82177768753,0.40914542187403724,19906.042232377193,23035.110334598863,12205.413751837748,52053.29417369455,56761.14243581678,136.68509227686732,11.385543976673786,23.317699716890985,4010.7676679986107,885.9518588338992,1019.8465707246291,0,Low Risk (No Failure)
107.56595268501223,2127.3372134839897,33961.66110990289,0.41950074021133854,26478.8894003682,10206.62971336762,13254.01526742804,54344.3902376055,33976.14053626813,212.56726408807378,11.633668252269311,19.690220312125376,8276.764623618641,1445.3668552727215,583.773998413347,0,Low Risk (No Failure)
179.0314068116283,6068.657261373081,11806.115489944823,0.06400008275238689,48843.57468883106,16095.895620062907,1437.9484308035126,51944.538093381874,53608.675462038234,116.7903221739641,11.331695016395674,20.585264239246808,7719.288647361505,1540.4546543681101,933.3781834356807,1,High Risk (Failure)
212.22771533529055,17003.033272490888,13271.889109422678,0.4428583095794191,20525.315915361785,22766.76497603178,7772.558123462635,25124.560518650134,21518.76416612455,133.98817211732018,8.345939392163691,19.64337868629514,8280.759681422367,1158.9469804747873,680.1636947759664,0,Low Risk (No Failure)
63.06317887949387,7383.748081728273,9663.568764693719,0.5174655536537264,35395.44742949674,17712.975790314646,4976.273420468358,59831.06966491108,15119.978937949938,295.1791135686225,9.719341717774839,18.33602824440384,9146.071069706017,652.86917623788,1313.736070333554,0,Low Risk (No Failure)
177.98817372330836,10167.041750285973,26268.623702852656,0.13032411356012108,36454.67342728917,7567.542284034277,1313.2478408020982,55197.14078743626,18546.067237526106,113.42068505364989,10.636001289635592,21.345345788412576,3720.3066749074324,1759.5462005549373,829.7395322049817,0,Low Risk (No Failure)
174.087368101491,20353.183728461485,26563.67104460077,0.4557062844202975,31028.872376351763,18177.214622740998,1312.727161334519,19640.657098107906,29457.83345067335,183.3705432527492,10.27603406548275,18.010612197190536,7874.270733915268,1048.6599425192649,1093.51686527653,1,High Risk (Failure)
104.58289009840583,5485.860597360974,19748.40034520992,0.6426944165480497,54120.720471588684,13625.740575293134,3931.1497139866374,66702.78388129038,14954.386213079018,121.65168615777289,10.239447701526514,20.323652387834823,3082.564113551669,688.9899841389165,687.5943936022907,0,Low Risk (No Failure)
187.66626553854306,7862.360812630257,27281.92591289958,0.3340007188265939,47347.78866925501,25851.010242990138,7799.954095051324,58577.62121776616,53967.631283264614,246.45704877629487,11.654400024270114,20.404592085711126,7001.334688829062,798.6200697917438,900.8890527705262,1,High Risk (Failure)
140.71295066709686,22430.769831531074,29574.159132548964,0.16422068745957075,55501.06189459767,13538.946911649662,10633.758450177218,37584.866239014744,35697.56924814638,289.47471644229506,8.133805522955269,21.969938338523676,8736.25483093556,1888.28413499944,519.6783642734673,0,Low Risk (No Failure)
138.80566091428628,9585.899791129466,30860.531483900504,0.8498022608023537,21952.581517288654,22543.974631973575,11026.810899750075,66815.0481919254,65193.872154327786,237.22386893068793,8.020387123258164,21.572272290660386,7183.1507215802685,1322.0430771421754,669.1946234762613,0,Low Risk (No Failure)
219.4714966164763,3601.326651430528,27353.982454951998,0.04773378967875608,55933.70650379952,22765.636309517646,3404.126386163258,47090.47120574007,26535.053232210525,258.3422397540752,9.42633754014237,18.311012973894062,8232.791282183816,1082.2966465145378,1486.7248477582207,1,High Risk (Failure)
87.94354974341273,21768.771607150724,14104.36094041457,0.3418653719366941,42349.99705741039,19239.272577185464,12886.794528846127,14047.398877025576,15065.463056139986,191.31707738426283,10.763252474768798,23.326706838131496,3995.62390953739,1914.1847813583051,1492.7957348539871,0,Low Risk (No Failure)
126.93341825636482,19624.079473078225,15801.964806521848,0.625866109615368,27238.01307174823,24350.107553886,11089.999327090858,56332.3871014938,64635.599951535034,168.31384480462742,10.114979443863545,21.689803209075144,7130.292951760264,1275.0018738132849,626.915981591517,0,Low Risk (No Failure)
83.82208805319115,15008.921110605777,5330.84252806701,0.037949730239870805,50849.62682324269,27113.28599070006,4745.940797098503,50556.78823853838,27755.205406035784,147.68851234401907,9.990357059926552,24.221465601662167,4991.70995374055,1116.5538332395724,1307.425183541941,1,High Risk (Failure)
215.4452305441681,16801.56889485241,27920.37876997162,0.6239070328578965,52094.95519808618,7068.351585863045,1145.0616590889065,63447.541224202454,43265.84945963783,278.5137670585942,9.594535885241363,22.250912573387982,5064.546649417292,887.6738432687157,507.3372586765628,1,High Risk (Failure)
167.60295297232614,15239.57311739839,17547.922427077272,0.4828174943504111,55099.64148754662,19161.29374252593,12076.641362869594,47411.89919464668,44768.911415728275,183.58499239799016,9.199624857040611,22.132145852396057,8935.660588085862,1693.5672531993023,1376.5876425546026,1,High Risk (Failure)
85.03627456057609,14564.988697769806,25382.256727853895,0.7676060194582317,50106.023213779146,27994.115845336197,6931.49103424215,24712.032755689925,44888.617639731805,155.63653513907823,9.651593600122917,22.3128928545762,6142.626575234965,1483.7220836759893,1038.3306182832632,0,Low Risk (No Failure)
148.67624226112267,7661.7722268137195,6951.378732114218,0.28554293786953344,39632.15550612458,23683.11421129307,10788.32292054029,63355.19457609229,60277.09439594467,142.10423350462685,11.612509065946478,21.19082408763657,8376.051953220951,1649.8345062936185,740.9966234577362,1,High Risk (Failure)
187.0296213522962,9391.21989644514,9126.563344254191,0.4358396389345528,31075.593747755192,27687.050173812077,10214.165592138053,21100.58455665952,41774.8270262887,135.3581810170631,11.48228332148825,22.618110979871485,7969.501330273129,844.2337990552205,735.3861686599722,0,Low Risk (No Failure)
159.12419200580854,9968.775233491166,28907.346972278894,0.3941133835127284,55156.97015669849,23790.406560807733,14091.525808743767,27847.766646524724,51934.304666100055,208.06382808064458,11.187244515224348,18.000328088541245,6711.352606320441,1439.161602476801,1114.942551351099,0,Low Risk (No Failure)
103.26292582152408,22588.158360586454,9061.357880333035,0.5638921128292661,21880.744982260287,13971.818295643156,3214.7417256226513,25856.58726453349,27455.77796872946,277.30364765932336,9.001139233079858,20.044177209589442,5130.288535011794,1488.4298024490386,1254.204761094559,1,High Risk (Failure)
72.63030447144888,21053.66082859424,28611.699619710987,0.016436057932327164,25086.93019906644,29302.69319751949,4177.434794618854,17185.328933290726,54451.851589858554,121.0715485098558,8.705233837716337,20.802247764500308,4505.615678686418,1921.744673967514,1273.751257552463,0,Low Risk (No Failure)
101.58479667885325,4717.45411150339,10196.108922797363,0.5747032039194878,53240.17644331037,25338.720310956684,13556.91837431886,34780.49522554381,63340.63113491427,277.49906063144726,10.301386889620312,20.66991849507429,4023.0210017587046,1624.7207573475914,963.7165095908017,1,High Risk (Failure)
178.06350667132295,17777.712727902413,12269.318191623432,0.5533924402297637,27859.600509895587,22640.374068768164,13680.816088085234,13339.534405429973,59832.53523420768,216.6200530750305,9.77518603244974,23.57029213036451,9095.483911198142,1520.9617091084574,678.1008458877097,1,High Risk (Failure)
92.42122146165491,7200.235109219252,19519.7225099762,0.6817284370551343,57708.906711871794,12108.627548623434,2218.065666455397,62475.18491913628,22378.923696622805,131.69781178469555,8.66321932017935,19.609889420808177,9132.80129444951,1733.3144323454546,812.1398414369751,0,Low Risk (No Failure)
165.42783070562422,20408.78046077421,21312.87367755967,0.009666266690182335,28682.03713361134,13689.128064897945,4527.031265552247,69685.80220708257,51002.961366111645,160.7922743406948,8.049467635580648,19.656061308763512,8962.642200590546,1571.6828009410247,647.6270584525217,1,High Risk (Failure)
158.42066248659197,5516.797063100364,11053.987440265708,0.5987737041336165,50643.793345827864,8051.991940377391,6144.528474245134,41592.89125110442,19991.36075549421,126.00940104293656,11.907771650355583,19.047981088513147,4500.1638749665135,1914.447992943346,1488.87714676377,0,Low Risk (No Failure)
123.35527562599279,26802.72071856602,24781.972397161142,0.03580929441773073,29088.059519065508,16603.48005935584,3232.2181869044307,65062.580195153794,57121.19698314357,152.24616410444239,10.209835396537043,21.303509686100373,6455.548147568148,1935.776959100633,962.1684924995936,1,High Risk (Failure)
74.36152008962515,25096.752233833668,5231.90802021047,0.9174069260927484,20358.304169223342,19986.344333001995,10882.205994745462,32962.625672576025,68798.9429101912,173.62004090233,8.929391529630164,24.88541633844831,5223.493321673033,1537.162537578309,1401.0181629474432,0,Low Risk (No Failure)
128.0698301786267,5546.05243089754,7050.451143445842,0.682229267576584,57630.233043634944,17458.787771297095,6435.923231959656,35356.03707681548,11190.101477932938,226.83312636792215,8.110810675032024,24.05982451291422,3224.037671810667,835.4432510690208,1433.985201234007,1,High Risk (Failure)
199.64061433058046,28193.433846001662,8047.2363270614405,0.6140083390389374,47692.65567331331,17895.644962311235,13975.071839175673,17596.977973594363,42534.496375214934,201.13656116541105,11.530867958058515,18.19084396370576,6877.297223895081,584.4061122670419,846.4593415177629,1,High Risk (Failure)
94.99422222504627,10551.252203248685,10607.358943717278,0.9238466241926959,59074.87388870828,8556.431124270384,5499.670002466221,62738.75104042755,48744.96161863189,137.20634853633874,9.122046500358856,20.329372456020504,9396.225499137832,1940.8794355174357,1067.2511048786441,0,Low Risk (No Failure)
73.14746679622837,14837.24490368243,12216.05259547841,0.5849115002718178,42355.68559337164,25155.683103188927,12216.81973897731,36512.02742809882,15473.651283773695,208.38057605405518,11.436623377399025,18.189277828260472,8806.19927549127,1531.468426399416,1152.6558384621578,1,High Risk (Failure)
133.26863910944445,12656.605813841366,5277.269437432345,0.9596988005510044,38219.28387942134,8580.68894525449,11214.378415293722,43284.94640618661,36774.48170210998,230.6050560932259,11.849829219162574,20.9418232424876,5532.622092718701,687.5003486959824,1203.7547019371254,0,Low Risk (No Failure)
166.84169465650447,16085.24136043603,30303.213309942206,0.10864877913293047,32098.87160062837,29298.144916776964,2874.960674800849,41533.58171043155,12943.446952243965,165.95731292236226,11.010254575264875,18.00715049335381,7368.115412931025,1206.7956710773901,1484.9169492761516,0,Low Risk (No Failure)
181.60088719393576,12024.354116772429,15262.850172782773,0.7751427640453388,42846.28382986906,16775.47275046706,9833.913731211742,52317.71307637849,22941.496143605447,225.90813552309538,9.816470149855613,18.6588791488322,9851.125028767656,1210.9576419417103,1294.0302901938885,0,Low Risk (No Failure)
122.79330979671681,17481.25538125984,30620.024704891068,0.8607948898601703,58732.89411645555,25027.196250397716,2440.5682762266233,11982.120233852762,13550.614351568127,299.934461312177,9.805940913556416,20.342947265564426,9796.549692318678,1795.7975745035649,902.8823978187556,1,High Risk (Failure)
173.0361162379042,10033.856671405594,11421.573686823025,0.6561370440820199,33510.335568675975,16744.375245967283,5738.906407600789,18977.35819003345,17824.6565868397,153.95226665584588,10.818731744136652,24.64979639270596,9774.209800353095,903.4862734732307,906.4665143963075,1,High Risk (Failure)
107.56652644917338,19321.470465929906,28896.456621394955,0.08227189067620644,38320.2102063695,13078.623610884506,8546.070627560508,36873.95155138381,51836.68562919842,277.8784154610597,11.70247966268885,19.236608825703726,3473.0126744575355,987.068641643302,1137.2733600410238,0,Low Risk (No Failure)
219.55806398457642,9138.431816418957,9926.508746820378,0.733314661265906,47953.24197630393,7834.176655862086,10795.781291900103,49582.89598688852,42022.46847230048,189.6816998942702,10.686214645403332,19.836579264461147,4576.619417647822,1680.067045485769,1098.5587728708035,0,Low Risk (No Failure)
182.57854924729378,2775.2830861635885,17784.546453521714,0.7790952558129959,24837.82490664866,22991.33584222588,2386.1630955416995,30853.17634456674,46098.793370594016,187.07504523325358,10.524800807186956,21.563003832177188,5427.966211465793,1125.7938119322334,828.8552531329042,1,High Risk (Failure)
87.34201398241053,27530.213549909466,12420.541154532284,0.00364670278467627,36517.441347451124,8916.797364587024,14436.787202441701,30499.48161923085,25090.602355539355,242.9435129404309,10.804882293812192,18.662481095649497,8255.568741140347,1264.2754609761462,971.2444747291429,1,High Risk (Failure)
218.0268812794635,24716.84013341953,25272.40281041531,0.33512426669622475,32954.68125016113,26023.712995120535,2239.759527606745,49167.71215745598,42853.55516667302,249.02791248766465,10.948490099095643,22.68301166092367,7720.5187677933,1045.0129563361074,924.4833059788922,1,High Risk (Failure)
201.7737774101626,4009.46655040748,33327.98478966652,0.009222273587226937,23246.513911007798,19449.715284069287,13052.536282097219,46701.497352019556,10965.682690433472,255.20271107928488,11.641287055320412,24.294140596903503,8390.474765173018,1016.7434942566498,819.6064333144789,0,Low Risk (No Failure)
128.07893351169207,3119.467639758357,33548.10687499364,0.5222894733111719,43792.95778250535,9511.049966149221,5432.689564752755,22828.291533725307,50847.539619975105,238.09585627984018,10.539035401126498,19.13515648057493,9672.101565009641,1008.178903738579,1133.1325540857738,1,High Risk (Failure)
180.04252223021476,20552.36934097451,10444.61374576096,0.9150451261446532,39263.589182513926,20105.497002321288,1030.2414577360253,10209.877382098079,56982.115010487425,111.16889860221659,8.255438329411971,20.605048312401287,5160.132595354911,525.9104799679056,732.1084692652261,0,Low Risk (No Failure)
85.52714881811013,15775.757323501855,22372.175830579836,0.9106777399183047,29169.49766629874,16312.894096036332,3064.313544167454,67272.38353619908,16845.434966396533,239.64774507741282,10.239607721641512,21.667237247680358,8571.656084913506,671.730489282043,837.2097500610353,1,High Risk (Failure)
129.44309858782003,1583.529933739147,26655.59481599337,0.3490187125424431,44909.67360925944,7667.941213811473,8821.4986733099,44998.09174329215,47444.757276989585,139.80653090834167,10.440046969493718,23.362881042688542,4577.6343927961425,1224.2443294529244,631.0768012781618,1,High Risk (Failure)
204.28384456739659,3160.8033927405622,13745.415750330601,0.8286499099626007,57684.69228123941,25571.554608211485,1359.533389930352,63050.22519356889,54270.82347453882,171.84433472275995,8.933399397903862,24.253914031310277,9292.391614501543,1841.346300279862,1010.2871569981421,0,Low Risk (No Failure)
190.30142730705305,6062.935555614448,17597.226430954026,0.6203428613172159,59365.67222055588,7609.423220489607,9939.07736253375,34142.736294206275,25162.029477770564,225.87619900804748,10.966789113330055,21.682163919167262,4672.195332153475,1322.8174896766332,1416.5605490855187,0,Low Risk (No Failure)
103.84883530995296,12922.691069521998,23669.460693627927,0.436049220621891,51690.141487099456,15142.047512553258,12484.566734952386,50516.04771198165,23957.019668633537,123.1701044956541,8.844681744007612,19.059932692957865,5418.645105216752,1010.9943169874489,1323.1875450067682,1,High Risk (Failure)
150.42130937427345,29345.707341916357,15461.084325289352,0.8803481958519901,31549.860246941862,12745.805613477696,11158.263392706454,64438.43697161946,55478.22752084546,264.52514965295774,8.664323704212917,22.000983053993846,8571.25624014802,1649.6460928277768,737.0810450137134,1,High Risk (Failure)
107.539474499708,3535.087428261432,22307.28605968254,0.48756536327892475,36729.380488771036,23528.38788426176,5977.9108430391625,66493.08614138834,42967.08966745041,151.69369155101512,10.352102431408447,19.88023487362746,4213.745959348298,739.9124747892065,1363.186521357985,1,High Risk (Failure)
152.6090807219105,17080.184315313953,6330.405858608035,0.4681838960287671,40828.86197107396,20253.576126888223,9101.334575157918,67198.53179603303,11572.438295200933,204.13939501661255,9.974421769440491,24.847654866148567,6062.7659284331285,940.5404943948739,725.3701480371012,0,Low Risk (No Failure)
110.22049224240436,8291.474413436441,12466.95155579576,0.29492613384531263,55575.32213521433,29935.659489649446,4964.214280682007,59076.67592538643,27579.488566662847,154.9417535946307,9.662269085161066,18.12977445677578,5189.571252444054,1817.6714450244895,1013.8690783457829,0,Low Risk (No Failure)
207.31834405482167,24210.561465205014,27554.791652787597,0.6274151112702953,59104.459639859,23743.83580813905,8101.495902701588,38440.1608728866,68810.79088739378,277.2731539872839,10.588197638685594,21.738612338594727,8648.136297472694,842.6426885517385,929.2391410497642,0,Low Risk (No Failure)
119.75327122123284,25969.255817932393,14174.077473484364,0.058628700422583946,43984.261204628354,11705.117138062513,5192.371487658261,41923.13562299231,37907.467525753265,107.39962608314228,11.536156900948663,24.6849477493272,9861.831379796728,1372.1136869825905,670.0425305922033,0,Low Risk (No Failure)
132.08706164961495,16317.488590934328,21879.623590139276,0.5348181649431442,15800.770050577134,17505.619523388646,9938.156104917594,12481.828049158428,26043.055146158098,163.12932254864378,8.93853685698131,18.507671132667877,7515.787724821024,1428.2933987151746,1008.6248327392645,1,High Risk (Failure)
156.5588953669406,21717.239299081477,21249.24523499159,0.05688743835614907,46443.10673176353,12963.956454702087,7914.272120473103,18447.35908883225,69851.93703692674,188.87824766424245,11.822278755337505,20.582220600268286,5907.158980073763,995.5807650370028,663.2364268018624,1,High Risk (Failure)
120.32862896027181,20676.995015048018,14238.31122985796,0.9384218520987698,39440.12490218942,11998.482764094982,8538.728065750733,27753.403566279692,51038.24716887303,243.22298547597313,10.141987640195843,21.2761326368291,6945.2614509179975,1723.6143176051341,1118.913557112957,0,Low Risk (No Failure)
199.74771809306569,29084.154784511826,9001.658512797787,0.9830164307061484,21705.3844535243,9256.372068053653,13361.544379074467,38934.60471224983,69747.99175977148,212.54672780259858,11.790758939531806,19.7701901548569,4417.996307140498,1080.6933718635069,1445.1667111673737,1,High Risk (Failure)
156.09509333769876,17596.230621718034,30750.681654772903,0.7545395326953875,22148.34342718452,29718.852635335166,2647.148337340056,23995.368112898985,54286.1328501803,134.4235068813034,9.427711903018958,19.542265015196403,5583.714978074237,1308.0401515780125,704.0400183785143,1,High Risk (Failure)
173.09717501561875,29201.380310809163,34488.347648606636,0.9317885430511741,50967.771345044246,25204.20777281348,7541.233338511398,46823.544763838545,64065.391699587686,164.2053139666907,8.727657174956429,23.75725012357071,6651.670697930886,1425.146906850714,1338.6731225883318,1,High Risk (Failure)
111.7776350639266,19857.397061716183,27660.167885119165,0.9753984776052259,41299.86588632861,16181.01770571273,14302.553512243367,67276.28216681986,13238.298189699775,287.71411300048806,9.835893336952651,23.589565341515417,3342.0816045832553,1537.9535313515423,700.7402462436412,1,High Risk (Failure)
158.97782051442948,6433.056948476878,29961.22217656328,0.5845060359833142,25069.7656088343,9325.9941534669,7626.746755340277,40038.11775689467,40116.34122634966,299.1392413541678,11.593467077609745,21.480748890954718,9834.527730096113,594.4135759903317,572.1665249729957,1,High Risk (Failure)
146.54480061409294,1708.3796052783634,9448.476136877478,0.02066185159343159,37679.186655886326,14368.042754808444,5071.054994661583,24024.225687659127,65765.82166024842,123.08424333934906,11.606732115131202,21.460426204755088,6179.614597973385,1326.1930004017568,1320.360872011615,0,Low Risk (No Failure)
172.09783942311225,24612.05424458523,23819.73408569514,0.6770406851477173,44192.66565639204,8610.577156612462,10925.074634766048,28660.20917812709,61372.51135933366,144.25170165567044,11.191199506379071,22.458749859024135,5530.932216979593,662.1713831370482,1328.6738030907209,0,Low Risk (No Failure)
211.53450673736305,13189.72628666947,23730.065796536164,0.4298457437063502,23594.191374309128,21360.495888493067,13714.776752412256,40524.91197692415,43802.87923761986,100.28576083339485,10.549965338299373,23.35601388616058,3548.252846582387,891.7173027160443,1339.4299872814838,1,High Risk (Failure)
71.10305374466934,16660.846575559943,10607.286044812317,0.5393745588240276,35909.0700513355,9808.30924098692,12407.313772250433,57156.19044696702,40925.33031221138,266.18664886899245,10.98411013556745,20.4567168998008,6368.783187805849,1771.1225444524632,1203.3162064713565,0,Low Risk (No Failure)
91.33329346148321,22342.653254940164,19638.437277711946,0.6685251384461137,44883.2565457735,27006.001144886373,13793.770389948992,35561.970966689434,36478.49146930828,127.76133679850406,10.895322323403533,20.24248258503258,6770.551598599862,1140.0552697857006,1011.0482583854433,1,High Risk (Failure)
121.53777215660291,15834.549632808963,34787.10472697794,0.8800767088838444,17089.514492597158,17583.03148113469,4729.560155673659,38436.172209969125,10086.66795491928,299.22619521468374,10.250179852088,19.246849630137827,7647.19310795621,1077.1616873239502,1420.49903858886,0,Low Risk (No Failure)
195.34743034843714,18136.566691989578,33375.33227188145,0.5620781375656487,35516.54731651688,16989.71461799163,3909.6745544921346,41521.23039598671,31169.39148800219,238.6593194440018,11.361681833809051,22.466700337979894,5500.186509973533,828.670599601731,995.1968051955804,1,High Risk (Failure)
118.80550756664503,17294.431731003882,12833.814332992311,0.7826207890770093,23974.298623678053,9270.503412294607,2416.289577169554,26231.41761423475,68554.60961555643,258.9296897406656,11.445480544445644,22.365433595149643,8874.319393794696,1988.2738623622754,1334.2821985912087,1,High Risk (Failure)
73.93484268732344,25156.830018037013,20153.50155412023,0.16939912563260728,52861.18195316995,27572.743455857988,10650.351314254829,33749.4912170371,55747.36595044075,273.55580696379934,8.420449456457082,22.88513048053772,4382.852062655869,1202.6944467481542,828.8150254971487,1,High Risk (Failure)
194.1047959981828,26324.376344058506,19137.521498705843,0.905350902327037,31808.608251557227,16436.366372200882,1250.040784214538,65390.61426664024,29637.3653035422,134.28417106391942,9.623769245094223,22.732690463575842,7328.8086903435615,615.2686552913711,642.5540129457236,0,Low Risk (No Failure)
162.6775035677693,7601.343538762379,11025.53648153349,0.7716407371953017,44813.575967266675,13119.876635298333,7469.64047136794,25113.099671787204,16184.726958024108,229.58083283978127,10.841647441533652,23.170906167943038,7321.689967402073,1147.0225373380194,1451.7928597307516,0,Low Risk (No Failure)
192.51988038995495,18916.582643089307,12549.933051364122,0.14730134571189302,35493.12615973489,18907.596536729092,11920.2905878779,45055.79738412128,56271.09601211945,135.77233224451012,8.259373718595793,22.324221310848873,7827.786935215662,799.6956026199753,822.2923954412335,1,High Risk (Failure)
182.45813821728652,23471.619535335514,20429.794367295763,0.8982696496338443,44298.55390871637,15963.834537207817,9147.627012579687,15617.798318867019,49269.06344094221,274.0878893227938,10.22328192847906,23.605068678553458,3324.8753016071882,1285.6165770246234,876.866353001365,0,Low Risk (No Failure)
172.18717785444156,1898.1474992527935,12114.442197095068,0.7967728605698454,19794.15121237674,9580.646672633859,11791.016822217225,46961.06751288173,29848.666892932888,218.80946399378442,8.733242972213175,23.686943242516662,6900.856094644929,1990.4324945215571,779.2116610234281,1,High Risk (Failure)
120.36546609673962,2421.134704166933,12966.325544097243,0.7525186605703621,19194.51618486913,8508.409169812649,5124.291068952162,39458.43729970179,50553.3254452368,246.29091165744506,10.26391085930766,22.66719938675562,5322.12106437307,1682.6228016707973,840.1343086309095,1,High Risk (Failure)
153.18762531315943,15834.243583475298,28150.043189322372,0.5733767880015584,31323.15906543944,14594.619260307449,10128.51244751113,19784.03664980238,63956.93843646159,268.77345705992235,10.769256894789212,18.783217797906538,7028.316286548992,1460.487454085511,601.254221010725,1,High Risk (Failure)
164.26669206014162,11982.39731185362,10602.388537919807,0.7144961527843495,47643.70338539031,28927.50802200605,5842.170085980685,42344.71002862121,37555.507724546536,290.4608547146521,8.659765522379347,20.485037418445778,3859.1567735606213,652.9508056592581,1403.7122544530353,1,High Risk (Failure)
103.46130900389915,28777.22382900659,10782.629656611187,0.7718182121026408,18022.42466724998,10307.165219129567,5582.346096234477,58195.600894252544,39269.16117075732,199.7423695368766,11.625856854688509,19.56602629498153,5367.046702596048,1237.634104862825,886.7675810794549,0,Low Risk (No Failure)
71.57063604127018,19287.07222194776,23393.659212246796,0.9212864116801073,51632.685350175394,22904.04711516801,1165.4427008949474,14031.353885195196,59357.21327165319,153.45137593642718,10.597777097154065,19.832451804845462,4555.1941924916955,1146.2524296156594,521.6848618464443,1,High Risk (Failure)
138.8110513205276,2784.747989910269,25164.460607972214,0.3148008261340367,38312.06479851263,14318.285698719686,8204.592702265725,44555.947242147515,34296.514496968026,121.5401175517764,9.169800206293548,19.835768733568504,3202.105279870551,1507.3054585785562,1112.5272585565622,0,Low Risk (No Failure)
204.8478398416825,7123.583085525882,21144.302902443633,0.07228623255031685,49848.52702141069,26026.423400768865,4289.490027870093,40309.245691071,35191.625561587585,286.9857778896703,8.532118183972772,20.859729127653953,9194.692201894024,1839.0231779079616,637.0947798535108,0,Low Risk (No Failure)
70.43273460167873,23188.091157360795,23767.68750409258,0.6428236882754317,42762.261212162164,26925.414040441778,14833.646078876285,23180.887034388128,26878.77880303349,182.10907203996845,11.488688452986729,23.7205700121969,6878.164619409536,1820.8612930904605,814.2419419912715,1,High Risk (Failure)
114.5991119612353,11010.215310573283,12324.10462420719,0.9635501381630547,41424.09584445655,28223.76674372714,8398.28414284506,45708.655182331866,37520.81673329661,154.9439417227879,9.727887569965024,24.22507792964187,6715.440421579251,1517.2619167489388,555.7030467463238,0,Low Risk (No Failure)
178.47618111256307,23882.17752185937,24852.954641821874,0.13837086181363822,29994.190445663655,28403.15052204502,8462.460389147072,46210.70744884779,22228.673647613497,253.06875113918338,9.592488888149632,24.56387605328739,4697.622330946015,684.478069347695,1143.354276529444,1,High Risk (Failure)
63.50613260400144,4673.020312568624,22793.178653364936,0.7317399735856052,29223.587340577724,25069.132188407602,7866.191535272539,16974.098828639202,40577.31034345347,134.897482195389,10.921573347742383,23.115049579567735,3334.1668385275784,1208.275564592807,741.8741860871555,0,Low Risk (No Failure)
117.95767066436613,11503.266481030396,8000.950132014612,0.23695636258815678,50379.82037891719,27022.999886493813,13321.542309615508,44582.53906054096,43883.740030442874,215.6593717510741,10.491153369794798,23.367084355167677,4660.505119201903,1812.4115832646391,900.9020525609626,1,High Risk (Failure)
68.44244125753642,4564.424293725104,8697.668598526452,0.8155424374190073,24965.134885957006,29232.359059133873,6820.109002515208,38410.16285304738,37102.52305719958,279.7800839590967,11.894327247739842,22.804491173869607,3105.09128491866,1922.7725018761762,650.5936005279734,0,Low Risk (No Failure)
89.63129085879487,13363.230525730338,6552.364390073035,0.9503354666683905,29130.0169025457,16985.902226488317,13553.074288370623,48424.76636302877,29770.85319150805,207.31301125577917,8.423339257692906,24.005401716987528,3347.8795808015616,775.9445158864207,1103.6285900656576,1,High Risk (Failure)
122.07788159149912,21709.45508682256,16000.015336238994,0.6282932284815527,38187.58308504384,29134.574408970602,6728.757554701282,31921.278580908478,33057.38479283717,232.89766193291197,8.649747800243931,18.665738213112466,7149.583943727268,1778.7009976489912,1452.2513859725289,1,High Risk (Failure)
156.92397109710194,24572.678174565975,31461.44558023096,0.48989414213082494,24728.33995704005,25383.545653444246,14208.449999918264,25191.17999994772,23048.997588263857,162.42746275437975,9.963270161059329,21.391106668155363,9911.828519757848,1850.35992155975,701.4455915668791,1,High Risk (Failure)
194.23957243488172,27730.07341409818,6873.480670003453,0.5395229435126496,51322.203523148295,27638.00946261717,4423.370040423838,52152.77037662873,56685.66370271373,193.12878682729792,10.982372232281424,24.026758647019793,9570.887194642963,637.0460348706313,1460.2439334483365,1,High Risk (Failure)
105.19937055565636,11377.393600604462,22548.083550171435,0.5141881809210113,52183.11142218085,17145.407154335513,1830.2200649726612,42744.045170238525,69707.37996839808,270.20540656896145,11.074785327249598,18.62454336300867,5811.14754154699,1923.5487674400208,1431.3320624713097,1,High Risk (Failure)
116.90763463439185,27028.437469140437,9976.337739876064,0.36148842996524766,30155.67549266159,28262.29054691086,12375.877945472226,11909.15746149464,27766.93388778531,226.39485383042296,9.857414355699731,21.61898341638818,6790.272709945206,1781.8234427241364,1082.0798288641306,1,High Risk (Failure)
116.78362935784864,21161.660016684335,25091.69023493452,0.1865005834048039,28463.797775927644,24344.712726951242,8489.918022947082,61255.40815926492,46464.35954317736,147.28726906720468,9.865260876872751,23.571426069167963,6030.318691094908,1617.909081458509,847.4321186019708,0,Low Risk (No Failure)
204.310431479864,8559.32509430095,15751.02896997195,0.7819942855110603,34550.06780489454,10401.793316834322,7417.238684570868,63310.28154348427,28938.072009596886,279.14381152928706,10.335973905096768,20.933509134853054,9444.098344819085,1112.918291609576,1141.2334437976624,1,High Risk (Failure)
171.14255342299646,4279.892443290852,19294.496235658113,0.8398580033995856,42539.1388588602,16360.871664369612,2780.1233043982597,19469.012348941986,41537.10900736113,213.67827343694867,10.299013213658053,24.550996939392967,7851.867053932544,1093.918093684457,1460.5436666283986,0,Low Risk (No Failure)
140.24287365602663,14170.856634865151,28672.21948645081,0.928175939066235,50230.354590255054,10327.454528711994,13542.954410539534,47854.0132237975,49710.51909027415,147.92276793377982,9.095517628624062,21.942250538313893,4146.029801358077,1602.014443243366,1208.4883325547175,0,Low Risk (No Failure)
89.25404477901074,12832.582647267353,9438.64216321912,0.6327151243009916,37295.70599275621,29043.406757666606,7229.266431994963,51187.85766318281,63447.93010962869,233.5352985242974,9.407164096333151,19.382601196867224,9740.299979468935,822.2065207972505,1233.8763549170103,0,Low Risk (No Failure)
159.66247613104002,13422.202216496542,6364.596244168238,0.6254968371167041,53456.35959642664,13353.94314617828,6809.35224340966,21822.0438332271,25439.427926197062,160.54965842103434,9.758879075286005,24.70510275020826,9501.632339511416,780.0724791322691,820.8952325618197,1,High Risk (Failure)
95.2979124337938,14739.425482918265,8947.121356367787,0.08316173313246489,53554.37493927584,22424.75385554481,2726.215708651412,68558.08699694808,45098.10851958021,172.04522612479133,10.454298336664856,20.756127508993355,8258.068963169784,1151.0031180621297,1169.3006313183778,1,High Risk (Failure)
185.63032690374536,19381.644743324396,19041.825883863934,0.4327064492487037,16240.570837613053,21876.265578659088,12944.56016888611,64969.775969569324,40530.19958299811,127.17630944537109,9.381720021207563,21.45657939295266,6362.696053978661,757.9993382109153,688.6232234449903,1,High Risk (Failure)
110.01568398532802,10779.89477423942,15058.649512384118,0.19303874129377752,55477.62420591959,21558.26380760057,14076.853991064214,28874.29964182574,19223.310779747502,292.5481263932951,10.18798938578241,21.14099796565384,6074.900996218084,1636.6921737869254,769.047319783027,0,Low Risk (No Failure)
101.64589721056048,17236.82542352778,22798.13278963977,0.18839298240357383,26144.075267054497,12477.02713136419,6088.744267771353,12784.317337659977,69458.18918587451,170.43671302043228,9.145015802309025,21.542170141147338,5209.575423607597,1410.8556414198715,1111.1109928205503,1,High Risk (Failure)
128.86838565135844,2272.551562693565,21833.30326305202,0.9694001125661867,32310.17811588453,6010.85238787893,2972.4125333372435,45029.18007680667,60348.73752765465,297.41759681076405,10.18553324700839,23.372980830023767,7358.224504872855,597.9181366368045,634.0956184843044,1,High Risk (Failure)
163.29641232934586,7412.574623781434,11590.240339841223,0.2258621816221703,16884.361453794663,17322.264229204964,8781.707733698015,57659.90942920234,37375.09174159905,194.5465586801986,9.83907176987919,22.923348239078045,3737.232234548905,1898.5948077323135,1468.508492483873,0,Low Risk (No Failure)
192.55508791185872,4458.878489152559,24598.14697498231,0.394237736129301,41419.65097783668,20099.693845806472,2256.469727637368,30803.52123300559,69332.24697878148,280.699241838832,10.41601119617806,18.72761878231065,6012.820575476042,871.8467169765446,1257.4698196415752,1,High Risk (Failure)
179.741495948197,29659.601339152417,14042.747353956755,0.580194903247977,26447.496372737205,18371.344188636613,5485.122884607898,30874.520409234672,12073.6731300638,211.26685732117596,10.64304549777602,21.00566438075095,5823.147165831644,1858.0153633912385,721.5333936717312,0,Low Risk (No Failure)
109.52441860581244,7752.898149406733,27173.740014096387,0.3643682941000802,17903.067483211522,29047.882535282195,1282.7431708294112,69815.14000424765,31005.676980654658,258.84013565147666,11.338927537912873,21.718256033841687,7388.998559427193,817.0394213435749,1037.4686744522369,1,High Risk (Failure)
81.81943609388316,8642.992905406558,7730.354206475509,0.7980465828368204,39359.79866714117,12964.67549893641,7202.6371076805335,58430.71933904336,27638.595383728243,203.30077531552627,8.10064953029773,21.613620124735583,9111.589281015305,1477.575814273198,863.694275450069,1,High Risk (Failure)
89.85120942176573,14978.502853531043,23377.784248276294,0.8943898536984908,35793.80720812036,12673.393594808806,6503.090365733781,23818.765225805437,67819.09090473084,254.20330095917387,11.533153344662864,23.230763162813492,9407.205457230159,1989.5894277190762,1360.2757601747865,1,High Risk (Failure)
92.71173959428369,14018.439955190914,34161.46894327143,0.6237219692791834,52360.958758668334,24642.052044400778,10931.9766461292,53107.83172412194,21159.219975743425,162.12612082131622,10.49747622864145,22.205857212546526,4508.111217654017,1215.597907507547,1355.5629663901218,0,Low Risk (No Failure)
66.01137446382518,26662.875658504032,5328.977481693418,0.3851407363115795,43501.106038789294,27082.566593342824,5473.482640662489,23458.92849840012,32360.641653682655,170.5883598618432,10.132532999614458,22.433423886372907,9084.652167993923,1590.1930077343561,1426.1351802916174,1,High Risk (Failure)
154.1123627117425,12688.123979306833,5123.814640238117,0.16697788222901044,17199.970327733336,14634.543831871684,11823.420932827126,68240.15357178773,14728.73798211866,259.28400365187167,9.855649847841986,23.125930581209037,8569.413351650093,1109.7441733822916,520.7277843021825,1,High Risk (Failure)
137.69435194550366,8370.271123706618,11418.851925223862,0.1626004084036986,55038.2539303689,20244.814432278905,6835.067164398162,68303.97760143112,17606.860401041868,264.583678086831,8.38123358393022,22.656950708679602,4454.5033625184415,830.2661207856145,1177.7419912049181,1,High Risk (Failure)
101.57250207044791,3153.1589205858268,11262.276002851697,0.28815694946174486,24789.72435064611,9764.856764315948,8090.596949849093,36787.0054666818,23010.334925839088,141.77295831138753,11.808954114609797,23.154132844275537,7956.697605924528,623.3767149114205,1165.5097535505547,0,Low Risk (No Failure)
78.15576339849426,25057.40911142269,19115.021572690468,0.1758578813161925,45126.64522005126,16632.679910467035,12156.501505883996,23137.727499274093,45226.97286510804,291.26299999314483,10.226239211970707,18.80489636040461,8396.287395390576,522.6828356785402,555.0351801589134,1,High Risk (Failure)
163.27556734514684,2113.6254424639924,29942.498657909335,0.43865868440710365,52645.33658871923,8314.32168173826,1275.7149105034869,13873.537009414344,65382.1958245664,147.3036909579607,11.513037967146465,23.0537524664589,3998.072958460975,1654.7583758588808,705.2563313666567,1,High Risk (Failure)
102.54855210113901,25013.255287453314,9295.925116407263,0.04664145092581107,55056.32885407295,24971.11468242937,10479.933128103145,50338.03832065165,66179.08937920508,250.80402525717648,9.781210184836116,22.276186313699416,5033.974076752438,714.6476234144102,677.5088262459029,0,Low Risk (No Failure)
103.32901248591561,9409.634386680114,24644.940751820108,0.8719139887586365,49650.51254560269,15653.958128631924,13869.129200627813,45704.56417577589,19139.06071688208,288.93392560178415,9.38742358254628,18.320956754253565,8498.788660924994,1159.5744340095785,1425.294321579182,0,Low Risk (No Failure)
157.26481484695114,25780.947641411734,15187.194236245088,0.21489643357423183,44978.24997827655,13495.148637394059,13072.054044331799,39963.599015009604,26848.296419590144,292.149006552895,8.267739232886168,22.540882214932388,5894.439687545513,716.5780411978277,1246.577647447581,1,High Risk (Failure)
83.47121824242905,12300.065246355347,16079.905064589342,0.2845667100798517,30483.48468796232,6828.255993636518,10882.9677337053,25913.97724480107,39167.82084680871,237.72877090851088,9.259539855894118,20.061655156306756,5132.063169194722,1191.1410269921628,680.3693795762157,0,Low Risk (No Failure)
175.04734482947927,27325.07606585518,9485.259185620886,0.5448732842857352,47218.150686272864,6645.575448453598,4261.317662730842,61130.655487698314,50039.56979762838,230.64367067756598,9.964452209375333,23.580679453109603,6179.830701669285,1483.092026352122,563.4069909315041,1,High Risk (Failure)
116.74659279761326,7213.882469997528,7168.1603676571085,0.16061402646920375,52091.46248842535,21283.960126280133,10835.280712774109,50145.024359322524,35688.46856033646,140.8662846654315,11.998242645361676,24.687335203050498,3376.150521108027,722.7213789497334,1353.730438348376,0,Low Risk (No Failure)
187.13252459203045,24763.40775644059,8084.984481924722,0.078946964836622,51784.413414624134,5003.128468914388,10244.248257567717,64951.784340099744,32416.580891077727,102.34592446537576,10.280476004192906,21.672455236813985,3819.6412939948877,1886.827322098934,1144.0027921322576,1,High Risk (Failure)
127.0032839827317,2300.9561712037935,31247.999730519467,0.15118291933725425,38402.8158833076,12944.359375667282,7800.556041865979,61637.91772734373,69384.04913854011,117.95013682695395,10.049788636429874,20.932383244687962,7546.854335312431,1940.4372410809622,909.7564765672521,1,High Risk (Failure)
161.0334068132833,25832.268713356105,15916.411808806499,0.9972350715875868,40944.075034567155,21190.137764542866,4270.947372863665,59019.15925908602,26416.465639754086,297.8755824781607,10.83752571845179,24.213780335162983,7043.791085514878,1026.4119553067487,1055.4494819227455,0,Low Risk (No Failure)
61.5966042653519,4130.910995214232,14804.609187551963,0.4143831693562766,17620.955374716206,11055.441091589812,1778.1913879892331,68446.89506431196,39017.314779320965,239.73005104439568,11.77804637901247,22.956855428783072,8352.128974779826,775.5610257519583,1316.4092489684817,0,Low Risk (No Failure)
152.87481615899137,26268.674177868194,14015.80271715488,0.3184963132638786,49711.685049250074,9224.514730842813,4191.9185229756185,55481.696037725116,37851.0835640434,125.57371543270273,8.779674361681117,24.287639529852065,9404.776219526266,1413.8285390958363,634.7010433352636,1,High Risk (Failure)
164.98589402897144,27361.16207623539,5444.904872951236,0.3120919159070821,42426.00613979128,19812.139523819686,2398.5031555257797,15114.588224743897,22758.414165559618,114.92478777826518,10.31613737871776,24.16251615343515,5005.766564986722,529.4379669999247,1269.7679922240804,1,High Risk (Failure)
133.28457865341898,25930.30088232778,6577.744137220356,0.12142212233126248,20456.372045957578,8471.805697898339,11377.66519579235,29672.26969495111,25375.069550235705,180.9639785682369,8.231059275829953,24.30640636170685,8554.434973809235,1136.6388607691445,1284.0034309789407,0,Low Risk (No Failure)
197.83130976341187,7427.772123909215,18194.622134997328,0.9834932057997748,47531.138199062334,24368.552912822033,8175.102341204498,18636.674490503112,29093.73712795993,148.59558102419194,11.22285884219288,23.709185347227024,8962.907705995292,898.1516488417709,1371.29662342327,0,Low Risk (No Failure)
139.4826974174671,3511.973064786127,26453.168408542675,0.8178740635904725,40316.14741940983,7496.44561180064,12094.137143594482,38563.41341309904,52425.04607289062,267.25904560730146,11.941178900393545,21.08199691387871,9519.127431920251,764.3690801502164,857.1688606886352,1,High Risk (Failure)
123.39872302442541,15297.873629605267,28680.00447021657,0.47200748211732935,44864.20452768174,5133.982615639902,14756.538698175786,58191.16948816193,67046.84348889458,164.27005612118705,8.048926494029697,23.332280060791177,7712.559903540981,1420.4495780056022,1312.4150260948386,1,High Risk (Failure)
212.28988566771824,23238.61803671542,25211.349431625466,0.5987233410567304,24496.038435247814,29339.488855041232,5120.53395925672,62808.24828671964,19829.780034306983,109.51330866450446,10.4134717154647,23.983983153480153,5544.9516000353415,1843.179953149938,792.8685982319579,1,High Risk (Failure)
156.24862068797185,19589.175662300335,25202.624007406117,0.3718009977172879,41351.63213492044,20028.059800625902,9532.54560129769,44773.16137892689,33473.28021140742,107.36468010759035,8.543838125966358,18.41927116182285,8408.752142476525,1917.982407803909,1301.6684201088938,1,High Risk (Failure)
60.883538739776384,15065.521638197197,24067.804460245618,0.6144212982230295,36124.20382465313,28852.183825892855,6164.185553813724,39128.329014384006,66583.78042665534,280.0228964280486,11.789314254514473,19.883370216647286,4788.3539269689245,925.4505624720296,1153.972036275129,1,High Risk (Failure)
176.04122566642184,17507.67615065199,22928.869795866798,0.9590084436087262,24533.99428795361,20792.439820577674,10727.44854229939,54391.70688183489,57495.90792847089,291.2812178357974,9.532740687928404,20.169228411736135,3368.4711416612477,1356.7864603000803,1385.572197876194,1,High Risk (Failure)
116.9754761436554,6338.938377467752,19115.152369769814,0.30108718046521366,48044.63910727496,13090.45606385775,14275.389184131851,61994.37863883954,42789.90511153944,137.97695652736024,11.054972870126228,21.319686454362923,4404.214690032445,1696.9478941017226,1049.555928670929,1,High Risk (Failure)
140.53522089698464,20176.693881687654,29112.648427075717,0.6785298454369424,37842.46724738291,15293.738225281657,14096.478325109463,28683.59084905092,25952.124977151976,283.6802387979217,11.522602129368941,18.98362270713084,8853.080277739806,1411.458690299995,694.1631401075604,0,Low Risk (No Failure)
209.79395939899038,13836.99059955256,10930.128106228069,0.6310141935045311,51653.079582738144,26499.98046954502,13351.294922599487,65809.16635862933,42183.21084046899,185.0174587811916,11.278846216050638,23.03796649191638,6952.921009799615,1795.4771385421313,775.3987574758803,1,High Risk (Failure)
169.41863229365492,2425.5971850214,27124.68453379758,0.24965009275830274,33919.76306757916,5884.480379332999,13092.02980458415,51328.21984423093,31272.397585116836,237.03789113813323,10.693051423843603,22.45578387336484,3319.199885665656,1579.4125849447842,699.1708488386918,0,Low Risk (No Failure)
155.0609144563416,25195.419076732556,21025.696754258577,0.00648952138699721,28059.022297795083,18128.97396944793,2076.2949859497526,34441.621221018046,29840.847133388612,262.716486603587,8.99616914258217,23.43431694194745,5708.5514471252645,1958.6732511835094,800.0108855544117,1,High Risk (Failure)
203.3746079877589,27814.611942730462,12481.273639876763,0.03567441636053237,57894.72137277838,25770.878636702404,5615.366076977136,42478.982898523216,15043.013935828136,131.27739968670483,8.224790617149218,22.29585686128144,5275.977244358084,863.4247103782753,865.807915068367,1,High Risk (Failure)
169.04043555582868,27302.580034709066,8485.42325035673,0.5496842558532362,55523.19716084115,13389.655254704596,7195.486893812592,24307.246975926973,56998.41927885707,154.11614254506912,10.593445867992251,24.418993550856886,9402.126394454282,1589.2348276336397,1036.1165286604228,1,High Risk (Failure)
162.58362126164758,7815.907665545641,11074.0262628725,0.996762584986409,57171.88528465946,14310.114080638848,4891.816826816545,17621.553828228425,13590.762315174816,190.04411869314694,8.858490588857421,19.558911410622258,4368.8076981788,739.2708800064629,870.6619458512288,1,High Risk (Failure)
99.46861832345968,11388.35219604911,13936.2899456838,0.5601925542342333,46512.799443118376,19953.32074382849,5547.693609298912,25443.280845033074,51696.78588218988,105.81876860473952,9.93530839468417,19.265721400312398,7122.751871098531,1358.7594386027329,959.5119176984208,1,High Risk (Failure)
96.5527586130078,16604.745259512227,31596.923378934564,0.7464597592217775,25470.517956993834,12374.559598058111,8615.667611437777,24831.12855822723,37978.92203170563,145.92672111618793,8.79776062244197,24.462956789058957,3397.9884344216034,1518.5938979406665,899.4419530510335,1,High Risk (Failure)
155.8975560067465,17906.955911831155,25158.684214847362,0.8764084885794821,47890.232433901285,10865.398923130826,5316.9103619621665,61556.15620209042,55201.1167875469,138.1811499153356,9.9339233595204,19.317412778149343,3188.883685561425,1547.9945448663318,1117.1819910319082,0,Low Risk (No Failure)
185.31174612778017,27994.153061098415,7540.2846572806975,0.30708241308334117,41017.29902697586,20502.85030421563,7911.361250154376,35508.970811462845,61788.06636260363,281.3958026488623,10.874221710953472,24.17246000556993,7688.944029090387,1688.5633255679584,938.3474359423134,1,High Risk (Failure)
163.03305271161815,21777.81161662284,12215.361272166108,0.9021064657183129,44187.09551867755,12154.3776442973,7515.237662481226,55381.06836993256,19866.31209612805,107.66104907208161,11.568585399511438,23.521505615676155,8410.696706465715,1941.3267633974963,1262.9045840265208,0,Low Risk (No Failure)
112.28715293724437,25878.786372140956,5410.329533139324,0.19248076777042167,25742.116133193016,26190.81745964282,2041.6293291295099,65384.29213676588,67434.75210049306,269.86018938724953,11.850489456148876,24.71324937428451,4673.928516324467,1120.6300630489282,1066.487121166537,0,Low Risk (No Failure)
169.47728424194509,22101.30299329097,21881.346300266086,0.868850751801164,55260.652844970056,22334.556104861935,1569.7268128583983,19458.859776869616,37920.151714816646,228.80052012993355,9.35677401090149,21.06753384202748,9905.320844119287,781.8597006442433,1450.6427804372565,1,High Risk (Failure)
212.64816436139557,4094.642753968274,8136.633744530728,0.4157889015772531,43831.10704275154,20891.002745198988,14039.655277266747,25549.92114215956,42355.321617409136,267.2005416559464,9.259935301869678,20.84121436445314,6537.863199805035,854.7358526254907,1213.5324537630495,1,High Risk (Failure)
173.2354160428044,26862.786130791774,11400.397236803796,0.11977837988356099,15314.585342962833,25699.37290195095,13169.045450326796,36444.432280201756,24583.473508438867,144.6564803961075,9.920643901074616,23.91813972954355,3771.1657201123835,935.3901040943589,900.0956089040019,1,High Risk (Failure)
161.66629709790556,21245.390798422184,5403.321319502487,0.7343096666086046,20626.422702388016,11871.893018084847,5662.155670789017,62729.80960593919,67304.31273307871,149.56176197766322,8.161491030227943,18.377355013994226,9338.121158291098,1179.8874735136355,945.6887869860805,0,Low Risk (No Failure)
117.62182519544305,6171.613860418273,10249.90486251752,0.9410198226972342,24845.493561341253,27216.079522352156,11156.68764743484,66637.35541910536,50146.353388437165,242.43330678082526,11.086058671679705,24.720828610205437,7920.955046608687,1197.1206016759859,710.6780706141182,1,High Risk (Failure)
175.6502885133574,12108.705386209103,7866.086229087115,0.5733237131030232,21468.356520887362,23856.179612422904,6751.994534196394,29153.744012623032,64686.98879652563,253.20089113140324,10.72404907545415,18.797723305168763,9673.373756572099,1740.2079563557486,1172.5788883075845,1,High Risk (Failure)
188.48414365322614,11595.638404968931,21665.269351864496,0.10848125756641569,17155.410966034116,8787.12636530187,5380.532773050522,59667.00111457402,52711.87898896234,258.6600954820622,11.636505149359088,21.526469087653478,9628.812908756834,1710.0629130338589,571.0375078253052,1,High Risk (Failure)
61.02064694505451,26301.421637426552,22406.568910716214,0.9998714382741338,20326.52578090117,13977.422576476205,1555.205545380969,34367.7407146614,31893.466965105705,236.44619746405883,10.03519768969186,24.81506427969813,5498.635845228502,1467.0917265616472,1426.670846827001,0,Low Risk (No Failure)
166.1659795226737,5185.049266936964,19141.043305189924,0.9338934381498634,54485.18176429392,18370.701956002868,2386.7788325575893,14748.543755981158,12069.983344662636,269.69504968544015,10.864978922177862,19.038539677145923,8099.843613981612,1240.0337725196096,1155.8373208754615,1,High Risk (Failure)
192.11375224970672,20936.479317442114,16344.644556822252,0.8340069130733858,57877.112262126124,11034.021371176783,9674.844518459733,54816.46291979988,34242.15868224854,180.02776102999746,10.683066261936107,20.802265359912383,7932.862486448007,1976.688463373622,551.5610054555684,0,Low Risk (No Failure)
150.72260175786684,20080.54742493318,6757.726631304063,0.34247255623582884,16117.548336600645,26783.897904452224,9423.363022838543,29626.55299435419,12432.788298908716,266.9083030953738,8.08047247182058,19.00466611057797,7095.2345922759005,1692.9836264244561,743.3030152004171,1,High Risk (Failure)
123.41002007971528,28512.44262893624,28406.80749853684,0.9514055157101584,28728.22368657071,5741.001816293072,5881.446801106398,12257.859049112563,37395.32717691091,246.06832744954812,8.894274472538076,20.051505656023522,8721.793343125199,1736.300669058035,1484.9430208509202,0,Low Risk (No Failure)
77.90713910363647,11214.698277051613,17501.259915416893,0.6520146153391313,29635.720444801962,5671.66305489558,4296.73113911071,20868.10057650353,20518.757807514645,249.20978284139534,10.970584980156561,19.104674721814412,3355.278569898312,1452.0377761100135,685.6281440013138,1,High Risk (Failure)
130.1085781197351,17206.385257685328,31290.563390815747,0.5401074389217909,53544.35493099575,12722.440057385102,6046.791514915752,50984.63907557671,27814.08683351345,138.51168503928747,8.275589442042348,21.842245346839373,4359.3111830811395,1393.192743522614,644.33722683679,0,Low Risk (No Failure)
130.94080230067004,1011.6447767348564,7992.890121144006,0.38677020860295763,15685.011217117086,20038.84124108795,11940.388187513281,37765.06489778671,67857.91411100574,255.89741205469787,9.834782161062227,22.150182677996746,7134.541814243305,1500.1810455178224,829.1791276202237,1,High Risk (Failure)
168.38290078221965,10770.735479225621,28683.15196446365,0.11315900658967626,25037.20357449107,21552.216927311936,11509.688820057005,38505.15451364167,67541.06258868166,247.98123108500684,11.585435920188907,20.233297629777073,4842.396941547625,1284.4171115587342,993.7094618672936,0,Low Risk (No Failure)
95.07423797728708,11423.290978093695,6400.934536553392,0.7732611520799886,58435.24467775608,12083.974924059497,3203.6571519950985,59389.43368436416,41128.48607461744,263.4760791040071,9.089428951673328,22.259503267995072,5274.862231578241,1570.1993713941274,1233.4590483822617,1,High Risk (Failure)
65.86931246249566,16847.814469735917,11249.808405801192,0.8837774582085866,57711.8874006623,24758.006136993867,13229.478814914415,57384.68357997869,61400.30653054718,150.66386733447933,11.694276947144957,18.50599933895476,4956.059051882322,1290.358529707703,782.694390638713,1,High Risk (Failure)
161.95223628932487,10162.138849183466,26843.13477103227,0.4984418404349944,57541.558866540116,6009.724772812396,3477.442352426146,19703.916200592877,19156.197460557316,234.94100863662965,11.181817568784759,24.955455785876683,7551.408367600335,1199.4217166603862,1280.2346294801987,1,High Risk (Failure)
125.54736854015883,6649.020276673876,25784.251815473017,0.2928128551047844,43202.06591805544,6545.38084449323,1321.5129440448204,15670.74069859089,35757.167380258295,187.74432802258147,10.933630335252206,18.11256981402956,8703.750466599158,809.8889825424753,730.3955887391763,0,Low Risk (No Failure)
217.57734444199613,26041.25206342173,20583.58299552669,0.04891182527848703,37329.26459775036,14463.07608658133,3637.5345258075795,10358.490443556195,33948.712333469564,223.04725071363902,10.328920222708309,24.449684653986573,3276.161218227265,1925.7904068230673,1401.7723157625924,1,High Risk (Failure)
106.14487005099932,7100.790364365237,21868.475083025685,0.033196315065561754,27711.115364737412,21939.955269711056,3360.8469800548532,15281.441751413615,28032.610738587042,275.18841447277254,9.114648611842185,18.394988750654267,5902.644778267229,1748.9121818941303,1298.6440296290375,1,High Risk (Failure)
99.77678153812901,28476.839797473112,17155.463114028833,0.29158537351219527,33613.1071174856,22186.01818657102,1280.4265439370529,38937.04798524731,22252.022331140026,208.40642412937683,10.765768812152237,18.01454905765102,5830.461015049243,1000.3910535499226,606.3796084463636,0,Low Risk (No Failure)
188.81445095930604,23572.785231819245,25047.783116245235,0.49509244999315616,52782.24529457324,13405.65482712039,4871.676899158998,43600.152438323756,61064.500259303226,154.08738523604808,11.855910101759745,23.467656497951374,3865.6561035151653,1065.0784253924844,908.9924226450901,0,Low Risk (No Failure)
135.5543880259119,4457.102842376627,11810.038980152618,0.3427404135888459,37480.297017071556,18432.91738082619,3808.5560100521448,46362.876956440996,53444.24621974652,278.16778281092274,11.458711791183273,23.77601998685466,8068.45185345007,1873.4623367735649,659.26252244832,1,High Risk (Failure)
184.4840389031445,12255.85934906523,22014.936388876118,0.9890392417557957,39304.20394939715,12719.394409049937,14549.729271429593,45836.35396863038,16696.579996712073,237.2458861632253,8.010169208799601,19.99881192329588,7533.867573447266,936.260258095425,1140.9092736996981,0,Low Risk (No Failure)
78.65329192891147,5934.4265931909895,10721.517590142359,0.8436380128457944,30306.39093364907,6159.204220341253,5059.861125791484,64815.58489271781,25621.87153013132,297.18805395562737,11.149976186535605,20.24449409484742,8418.842678158382,952.6944617506872,1111.1277805659843,0,Low Risk (No Failure)
113.05869585725344,18265.315952799043,14982.911460070382,0.18394770616062162,36704.22469738448,15525.522364078579,6161.399369018502,65683.06222511115,13209.37756161492,224.99850350869247,9.260590341991367,19.930866951597967,7975.340767054887,1063.3989621337942,591.8428682049886,0,Low Risk (No Failure)
162.71544007092257,8849.824524750202,32522.775584135034,0.8505221096049745,34349.6643010938,13111.836458077778,7421.663038721269,31404.507342754594,18949.065616105334,186.83643814793265,9.971627313962514,18.971197469162057,9736.575106841054,692.8659631549156,550.3243103897269,1,High Risk (Failure)
143.24923214460694,8466.897278281609,13895.04713071817,0.02234493376629121,55788.68096881977,23984.87729492416,2291.058659503964,65659.4879519437,68618.63924548085,144.09472847335775,9.027399328436998,20.275196688146625,4478.665373900934,1265.346485121453,889.7070629575335,1,High Risk (Failure)
184.22607371871948,17910.06696111704,21360.88556400925,0.8085861694290979,53790.29125208647,29051.461200690956,10669.518070554956,11927.508895568366,54193.27852013148,191.72251504473041,10.38565522886385,24.6513088012168,4924.509855928066,746.8339081852657,1385.2121506921019,1,High Risk (Failure)
63.79324058312294,8961.792957472895,34930.88655983641,0.9708474014850094,54862.093097098055,19997.781565597863,9741.681245488395,15233.295565024706,65862.72097954263,169.24134817741756,10.907464824903286,23.804635046224167,6366.126774996725,539.5085262402954,1454.7442864824327,0,Low Risk (No Failure)
70.37657511727494,19506.05717297181,12161.440518051906,0.7954509581775875,27643.24739278597,22659.690863960685,2392.8846068841694,10920.531489392783,13736.548630657373,155.79551782633325,11.81004482055669,20.503444094369634,9446.18847386025,1520.4294001976734,1067.4139036419404,1,High Risk (Failure)
60.790396949505535,28479.388663397247,8006.340471515736,0.2694384907480917,28470.14057352144,14481.222266027058,12272.063223461826,50883.254236788605,63649.61096935952,248.4678783826772,10.65209929494111,23.62658527008812,5995.563097549506,535.8349275416273,775.4590352792466,1,High Risk (Failure)
67.4963053644165,6449.204075154079,23109.335735179633,0.07484282147140509,52251.14324842136,18831.479679048247,10881.714832733973,57517.78289527285,35573.28051185309,159.65555810835536,8.605413787241286,20.69348616845541,4551.562900085218,1720.0933340867286,603.7457840286078,1,High Risk (Failure)
95.77533416311242,25501.058476904745,28954.878908117393,0.7408176579321153,36721.95208076138,24043.712423222132,6382.453849553052,53262.7501780647,51381.396829149635,281.03428370442475,11.997597635970505,19.43208429351421,3548.303528291054,686.1168732907539,572.5383199402628,1,High Risk (Failure)
173.08435470167132,25851.553766212255,21364.64444170886,0.9509681864523993,47533.88370788792,18572.374533915536,14757.16761209668,50858.29742322607,20537.365985113367,128.40596230988228,11.75726313776902,18.018437451021207,6804.605385335502,1707.817722498533,631.233451860838,1,High Risk (Failure)
65.75076380747873,21580.46896163121,8243.700574312881,0.7420925925582444,53817.814579174374,10391.207540946969,4473.51319972723,50656.78811778735,28443.898988981884,154.1376801235208,11.977241016267033,19.83635813408969,7204.63173794376,845.1016239359589,1389.9118681936707,1,High Risk (Failure)
81.93755291663985,12828.932866625522,8428.738575105697,0.18297338341486946,26728.193100168406,7303.065203651839,14574.68477668,69341.36309872215,32811.149372205735,162.80044638523339,10.076785186051826,22.621751721905625,4822.086808003128,714.8722332046002,526.110235486306,1,High Risk (Failure)
64.19147336513036,14653.676161611045,27553.968335561258,0.47343786783827446,45749.64446411481,13803.697226387918,7364.100038624365,39106.68775083266,29234.93660935715,201.697649968144,10.459249555359925,22.372452978913714,4568.972930397871,1478.7734851844232,1268.0005531665674,1,High Risk (Failure)
112.31056389386805,17330.671222869358,7318.804794513975,0.7148704106773852,53825.09600861253,20116.858904219796,2064.42150692257,23604.42103139481,18239.37055234404,266.0913346270955,9.403855240982075,20.437461812712396,8583.702666484887,1658.2518435433294,844.7111773880783,0,Low Risk (No Failure)
84.78804978295082,15895.368133930879,25356.177326431276,0.6781792934120665,34527.971411228296,9182.118482335307,8868.02571918876,60034.237051733515,11937.759802252755,215.62757691987875,9.517038320265502,23.898222061360443,9267.641593764783,1679.1322507627385,1256.509024232364,0,Low Risk (No Failure)
116.10030899346893,13531.370867255951,15269.218544825591,0.6225908979425233,32775.52515061636,19464.91174198866,12882.157986946728,16619.37256146829,40762.663688569104,158.02517496357325,9.993327869368615,23.585455512254924,7625.217769453548,1964.0069427985657,970.5856515505227,1,High Risk (Failure)
83.87991515863582,19271.00274873071,28712.457509576307,0.7600472059609774,59114.81097943715,18173.53062590082,5720.736188429386,10244.77641096428,13565.353414595842,269.8455428677321,9.256228407134502,22.809298929061654,3107.6597284579047,620.634904504175,1446.2406760251397,0,Low Risk (No Failure)
199.18341792994053,3031.9921759144945,26168.59412540432,0.3728099892032055,21245.57125579364,26281.80967255262,14940.93249035399,51107.3183290318,19679.10440689286,278.4919779304796,9.64670285298549,19.50889263894893,7968.94181179753,1567.9562029362562,1277.2616495150755,1,High Risk (Failure)
69.9636969411017,28355.993244350342,33569.0415380332,0.22420981220884317,35696.94884814249,16584.91616515,3744.4163702101428,58550.842402083035,67235.34864170836,210.71448625591833,11.090187290048359,24.042368792298955,6997.603878960787,1200.7140278205536,659.684196627326,1,High Risk (Failure)
114.49666665300667,2902.4221834058562,27312.10444857337,0.7039859218646632,21832.955054037404,27695.115286184864,7709.991465797659,30531.32297462662,47363.127559521825,209.70205368676451,11.792348785320838,24.227300995323844,6441.13846512083,707.4272768960775,663.295842006195,1,High Risk (Failure)
68.91853657399068,3443.8462162422006,19036.77584396075,0.015216529690977199,44312.24270202065,18620.760333244627,5668.559556987309,10671.911522855515,47378.86276901914,227.2647991640597,9.774529754387318,20.21322993254487,4710.918307052634,1882.5607774849345,1467.3058998757006,0,Low Risk (No Failure)
88.39032700475565,29042.086923931143,34268.14905767336,0.2517444642825304,40871.06628800552,17094.830826362842,12533.430680341437,39941.070029737515,22480.425847300434,128.6510408781557,11.770767638274666,22.437629306260543,3682.9169894649713,1564.77434816763,1036.1528781577576,1,High Risk (Failure)
152.44912804017355,7139.7865753970045,9046.245392241432,0.025440901132439353,58100.39862495457,18299.637386938644,1650.4632718856362,56103.92930829228,19022.600278622805,114.68338616938323,10.480842129364781,23.99456666856332,6745.512188946739,1924.528291731067,664.4096947399771,0,Low Risk (No Failure)
100.38991109504332,3649.244038983119,20740.65236280432,0.10849834507043843,57465.918899102246,22602.075897515744,7220.221503650974,60285.459621100206,59906.86936081232,159.45817684220734,11.409048114649417,23.79833891767817,9045.953753372964,1611.3386814037565,1049.38245035409,1,High Risk (Failure)
208.32015486788725,14044.315730428432,17019.735453138597,0.8226561227103854,25794.33265662232,17828.537831181653,3846.498068514471,56979.990293091825,40391.67715238566,159.93111982274263,8.001549651881778,22.684520131403985,5169.665610457301,1529.0852457902693,1419.2047369666261,1,High Risk (Failure)
126.58463970876184,14836.184713123857,29421.55779264289,0.2182470547811538,28173.74213341529,17476.036443028224,3398.998266204798,53608.71087925267,26129.21690719988,276.5038870160769,9.294792128068865,20.099593939246454,4239.806502455021,1448.166522440055,1076.673982820132,1,High Risk (Failure)
128.50946373077028,24136.335758891102,9802.223164601919,0.8080147490627835,38658.656134286735,14418.983583153757,13527.814774458213,19353.289791222902,29689.27716858552,158.65402432373094,11.3814636040864,23.208546736849136,7247.6216228853455,591.809586442718,685.7136421530365,1,High Risk (Failure)
107.1391034153909,7512.889096963131,6610.915638181228,0.4681777628802003,57351.52262417459,28864.04363370595,7433.942324425676,30623.885062463745,64432.59103183286,259.8673225931125,8.503830540356716,18.679320087943847,8247.448846346637,1621.2060191477754,667.041934361738,1,High Risk (Failure)
99.57569627891162,26436.69929505655,7709.556808972191,0.6539436721799263,30003.810065070742,20925.860226817742,7277.323358645892,29159.84842971346,12077.969083821494,228.29866031900588,9.641396962639227,22.75907036564412,9808.11359766922,1444.6459374174285,1375.765610508464,1,High Risk (Failure)
204.8611162270822,10308.914323586037,23305.357287099254,0.3177854085868639,46787.064445636875,15667.622520128192,9403.286776918669,49443.33613381439,56211.47782675244,119.37023157663262,8.258654800889937,23.29572725151443,5239.960660516665,720.9080749744797,1313.5080348312417,1,High Risk (Failure)
200.2641218925121,29357.75711155167,23099.236351668293,0.6645794280090398,26409.23981336289,26620.773317615814,12838.63473645405,65769.43672538508,10490.265544462838,157.94209196379956,8.521468052689514,24.604160588131858,5102.91683502299,1323.4377086303111,1032.94093242183,1,High Risk (Failure)
82.40385560853083,7026.891402306239,13754.695627219018,0.3241544029621731,52058.776919156124,5982.050971085252,1105.9674111319873,50277.90883121064,44884.58175390739,143.99459987763734,11.085701151296492,19.50195430627496,3270.5889759627657,1461.4351439600161,914.7475934757276,1,High Risk (Failure)
98.25062145200475,2783.666357300518,20970.53379551417,0.846207769878963,32897.93807866593,19223.56627665688,12122.58905430408,65229.06570233713,33823.254171125394,261.26023826727356,9.994873556136973,24.84480905065962,8352.578094243487,1934.5207953397573,1208.4513329125975,0,Low Risk (No Failure)
136.9556623817798,19825.46498009531,5630.744216588066,0.2673375624116643,55623.7956738335,9553.95402697574,14300.83769068559,39630.62284878435,49315.93705281236,269.66487035501257,11.565566592775102,19.019603225408893,6740.149055045211,802.7935920062173,1274.7860166079458,1,High Risk (Failure)
209.50928620055063,24754.112459152944,24602.957725230863,0.14854515150998093,22224.30389707919,9435.919606835398,8909.363056695674,38214.10741215963,22967.8385500792,204.19173123197794,9.08920624346396,19.95769801757946,5219.029518028256,1939.9412141508774,1314.065682042706,0,Low Risk (No Failure)
149.62690935389472,24687.007717656077,22307.664157989304,0.29767197934630374,33856.41376878574,23310.544398233418,5225.1054010947655,54882.31737247172,18049.67316068686,108.42743214591124,9.806602660115605,22.481980858664794,6346.503515525948,1394.127289129557,1322.9994802102779,1,High Risk (Failure)
86.81064628872105,16562.075112329323,25773.2105755439,0.32479287078831576,17356.21683874834,11942.77354770941,9890.174124903115,11710.287935234513,47606.84812925652,162.40695162466682,8.52484570112264,23.1469949856293,5149.682931909096,1925.4805662772676,1182.9557315638783,0,Low Risk (No Failure)
111.33672683997497,15466.679688583954,9028.9089318556,0.1057352679264505,15783.67067735517,26648.915048621708,4636.303137242716,31731.94845218586,61973.06968566734,169.33551873152797,9.338704086532815,20.30148238875887,4021.697839000941,1301.0094702887836,1249.2605606945235,0,Low Risk (No Failure)
61.338189100297136,18547.94704487737,24090.32945954268,0.21344933224460927,21312.703886985462,14467.697718697851,10247.928014644122,13370.367934132702,37609.92819957687,152.9122370984053,11.943057512442268,24.064824617552823,9964.14757547804,1840.4202849681963,550.6771597900869,0,Low Risk (No Failure)
212.0099147281288,8930.760945874415,28556.08603738475,0.5568151179693931,47560.168139748836,15351.679164420908,3906.5591179581997,35202.77650785602,30215.380969590147,185.48868530146848,9.943450009267774,18.267522584918872,6076.742803988075,1394.8257909470053,1248.2191796815086,1,High Risk (Failure)
141.77818215832008,17247.002449708525,30250.25627814466,0.9729257104088996,41275.21711769676,7800.7038828333025,10051.878551621781,67198.24458375544,19007.677156716745,281.79628850133736,10.39353188772828,22.68644635316427,3825.0515811061878,529.903032335812,909.429523422356,0,Low Risk (No Failure)
151.76463223289173,4627.578385255702,10604.236945714954,0.9207379356930562,26139.49291581207,27281.295328704156,10788.827009443217,28118.328264510765,69614.33028945167,234.0707248977149,9.866218507697432,21.265342203405456,7338.02231282102,629.6727781596602,1299.272183620035,1,High Risk (Failure)
166.27510159823493,7844.229979387649,27724.46974220357,0.27637934531589947,45672.29655757391,26040.79330117796,11191.736984717107,64233.790607313465,33948.18418562217,177.96850377758062,10.016758461974995,22.52249544543755,3139.345725472976,1157.1470202330725,1435.4856241717243,0,Low Risk (No Failure)
139.22344432223588,28062.59459442153,31999.498306359623,0.640891664837207,42686.94155869378,19991.36062616198,13698.11369764869,61322.978736141886,49142.09636821197,282.43210992018953,11.940081488771238,22.346792143824345,8092.232383689716,1789.6089456419854,859.9458039734789,1,High Risk (Failure)
205.7483495190148,15619.852415634712,18589.943024898916,0.7658523040370093,44054.96600455551,23620.11882428885,2068.7337557584397,59300.92935531411,31460.926597580532,250.1810657355801,11.38260376617744,18.442878464722885,9311.229886096775,1524.8087848648988,658.4881950015427,1,High Risk (Failure)
163.78223308301048,10569.271963418018,13411.825357710517,0.4993955991710657,49690.30574758119,13276.533164872377,2933.5607164301405,49284.05253794284,26203.96429310839,113.92999821440026,9.266203412724508,20.028064360281952,7742.253432493047,1064.9941663912728,1028.6252504094614,0,Low Risk (No Failure)
210.6707178652849,28404.55878111945,17620.467111227852,0.8711321210821681,47798.40164431946,16439.978270096726,3369.937885601483,58695.83424792772,54940.71116584138,147.89264778715756,8.369711957191488,24.521818023815616,8593.443975517035,1914.720718753038,1007.9491833727561,0,Low Risk (No Failure)
133.51148294495786,4272.3757909896485,5250.4921254130895,0.8559758603951435,31052.909765053744,13284.276157150005,12050.739120329963,58960.88960457293,49737.17702375189,225.39511184198994,10.865707954361703,23.856786611553268,9560.470961394416,528.8560225377938,1000.856417164145,1,High Risk (Failure)
151.83197857104167,8673.31624454987,13201.517543413358,0.6366291184450487,42909.217437338666,23011.00784605277,3548.756681173209,38156.07546923515,19803.603439508617,213.89479707611744,9.431342501718673,24.825704501362694,6243.8533736396785,1115.0316772389078,579.9713814429043,0,Low Risk (No Failure)
75.44551523127053,4815.393892541284,10875.177256827013,0.9232258784862326,17458.182994491806,20612.163902690518,1202.5595050240256,50078.16203046585,23243.08645838732,195.69412417443348,8.620882017514292,20.423016048206133,9323.077305715284,973.6574481770377,577.5499058211573,1,High Risk (Failure)
94.02310021937538,12877.26689061277,31709.43368640954,0.6420135846752412,36536.79203681813,19460.810950504987,12194.324691608848,44451.167636350714,58254.189818796476,252.4360856472218,8.717704420380167,22.886483135196926,7688.831128240671,549.1199424862476,1277.641115731628,1,High Risk (Failure)
103.03894470961563,4493.9728507155705,13192.44350963955,0.43919216568266695,20593.70865667133,24207.88244820554,2915.1038850766154,25802.761835097233,50037.21124383023,211.4081338143808,10.542187392849744,18.7797053187376,9045.32635001922,1558.48308036301,984.142454087109,1,High Risk (Failure)
76.52240142000775,15696.331180815854,22441.546860095335,0.89009842418767,34979.48821359488,29465.706405801466,7425.155253092528,57055.341393146686,14109.543813248154,180.67083398730045,10.138012708208045,23.630127563471127,8820.583468136294,728.9417245898607,502.07142918540757,0,Low Risk (No Failure)
83.05260576211194,12762.962317407828,29087.89524122829,0.3618073680354902,24413.306674952863,19349.61050937781,7908.628182531673,42130.566420825126,14742.470643646866,181.4129565310528,11.376803963203068,18.099063328667118,4934.174876852423,1281.6766513316952,1201.1374210148788,0,Low Risk (No Failure)
96.62007399735984,14052.762789134922,15051.475128154472,0.36960429761376457,21003.2916575196,7581.942132027096,6247.348839831007,56983.699814486805,62946.11441486871,282.1573587713197,10.286670837750947,22.71292195887711,6039.887441838336,1186.5610919525848,621.7109775975954,0,Low Risk (No Failure)
179.31740523699716,8612.798424011804,26051.931222673546,0.6822263767059911,46297.97144062237,13285.951725365332,5832.395486266651,68358.6709546289,47080.592008351756,224.1947763595159,8.734638245545742,19.4257293107671,8392.486755798325,977.7115509097454,707.9383444790171,1,High Risk (Failure)
158.92076344484735,2414.223245581072,33868.7462501776,0.4632296374090289,32523.60941470968,9823.724810940155,8309.462342166622,23132.285763109343,29664.02829039334,185.71718922837186,9.157208991287872,19.077766451829692,8308.573956409742,607.6949893510364,1212.4127404121214,1,High Risk (Failure)
82.59185016594958,11662.083335714142,34662.81217682785,0.07098919115138647,16229.378023878447,6432.826162983311,12555.77508333661,32818.78662613173,58119.77721792361,232.81008038577303,10.061599870196982,23.7208662433463,7568.325128181918,1693.722371599627,781.3087959317253,0,Low Risk (No Failure)
167.80099676545436,8287.922927122547,14973.431547429149,0.6057718366223738,28622.132703292235,25238.995586918933,11314.261241997901,30160.074858006054,50058.56939341322,160.68458875323512,11.573435304533419,19.732295716852448,8404.730031050016,1070.8386754547519,1402.4219296465644,0,Low Risk (No Failure)
99.42432531825709,20312.46781633346,31101.655793278485,0.7441861072315932,45113.885222046025,29715.256059674073,6795.870454108012,38278.93345121569,25877.5160771699,265.65616373769114,11.544531001753045,22.390087779658746,8913.74038002107,1827.1908943830047,982.9984978710388,1,High Risk (Failure)
68.31829631643319,15902.399208568775,25483.38500582391,0.3057374740146237,31061.170566218185,16680.809557744535,5407.448584486633,61575.69739423476,24725.72554119971,162.1727165711635,11.538582913589753,18.041696337611803,9160.785627485671,1434.4690383692105,1363.698406973685,0,Low Risk (No Failure)
208.8637472270921,21198.708320829784,16372.601691465565,0.6521108572187282,31029.131872936945,25389.985922019365,10554.453701028975,68531.43071691364,40659.160443545086,276.9647382585739,11.847930106929319,22.884260100803058,4090.121456463087,667.1829780816599,1318.1573679496528,0,Low Risk (No Failure)
181.6463716995416,29792.131818777285,12321.903531287757,0.7946621542939618,19647.427448935516,12322.289730097218,12877.35225584119,46957.23766460463,10444.8135288376,110.67318708733119,10.605135377571939,23.65316298009029,9086.599157204477,1567.6954337148761,1430.9108979514895,1,High Risk (Failure)
100.36990833114993,4697.492073487586,19655.550617924786,0.15877628628726226,56893.43017574448,12499.304469000026,8828.267041747145,22028.026865289103,17585.106690939047,196.5647969231419,9.49589637358748,19.128998745347577,3388.8342472466866,1240.287597165082,891.6223438595893,0,Low Risk (No Failure)
63.59508933121879,21809.280096807535,11442.609974752482,0.87932165926506,54936.83340183011,7396.240844218724,10200.045619522247,65720.4643836449,57087.27957657466,210.61245553891052,8.141515598111992,22.182386803261487,6087.559556144171,626.7367540923568,1381.9885139891294,1,High Risk (Failure)
138.02044954675375,2353.859777078939,8026.664063175767,0.7139427112073776,55136.73651567251,12607.417538958141,3909.254243027798,68882.07848864977,56313.527462927916,280.6668127628009,10.789180635299674,18.671783685622923,5532.263416359587,1611.6175248685386,831.6521216948446,1,High Risk (Failure)
114.90677650762532,6483.251959572116,13446.615881845872,0.6510511169779467,54776.514388256815,20477.7609420401,2715.1342415190948,16127.357509109173,64702.299926192914,167.0284530921158,8.69828748423384,18.372153783356644,6471.505254429847,1249.0081331927754,1017.7483055547939,1,High Risk (Failure)
81.31358786186058,21360.818463005242,21856.94309004279,0.9192984383776744,32001.409519459514,6335.653186188742,7836.89172712969,20113.513763218245,11835.467670782411,211.60012338805035,9.99358608818552,20.547832474968825,9251.56227548757,1180.2456707828032,1283.819445782686,0,Low Risk (No Failure)
86.04655827299669,11323.083334134859,10645.525075038368,0.21884081695077606,31328.87234535173,13830.181185511587,10514.887107127357,48604.27176034374,54910.7276403457,263.6456014820529,9.950469831333901,22.246333933108488,4277.532475222208,1162.514939537467,704.8913769742942,0,Low Risk (No Failure)
207.58948538497992,9428.646109889401,30759.487367078924,0.4440647373942519,38933.5699210724,28375.769333395,8085.220698899425,27330.16290866897,62984.67765506035,225.8018822002354,11.582887626936643,22.195817100951988,8217.229731155527,683.8742063740616,1157.4955612425847,0,Low Risk (No Failure)
129.3732468212183,17957.947441781835,18849.77542284246,0.01618466893189119,35699.02410800696,14314.416911450726,4441.320707843528,54849.909085206185,65076.55911219945,282.98235561639024,9.987446101493639,20.823645270537252,9506.1351847035,1727.7824651971453,878.6966857838104,0,Low Risk (No Failure)
174.24843574050027,29238.534879116312,7737.517078467359,0.04651849634506866,53917.521655941826,22027.275993246178,7323.903488090422,25846.123259260658,43239.66173926752,258.8349297639861,9.442130973380749,22.345120465788142,4580.0622305937895,1746.0226378066386,1324.3449247204908,0,Low Risk (No Failure)
142.96987018651743,9526.09826925364,17894.53094424146,0.4999835316048351,18222.53604402832,17746.553211116683,1562.3375370337976,46232.140169537386,32011.054203091488,151.95208442856767,11.882024944907638,19.79996813766478,7348.409441671439,1879.070380355371,1159.6172455510637,0,Low Risk (No Failure)
212.8717106300908,19131.134481867935,29841.649189078187,0.018109437287955554,26660.404692214026,7617.002600944582,8054.954953547656,15769.702217855316,22849.62063599027,273.601377255021,9.909685231941825,19.11094153152013,4493.907360526736,1721.2650059216426,789.1344759672575,0,Low Risk (No Failure)
97.41005329489026,17731.815353508395,31960.791614064823,0.5005396771321254,55837.785716942846,27419.559216576265,5704.007800906517,26994.982564874077,52134.297789683005,171.39332531328787,9.808101769595199,19.852304524292972,4046.404593244739,997.5568222322606,716.0718782575491,0,Low Risk (No Failure)
172.72870848439123,3921.8324748277123,24341.50513444229,0.6739812723165507,29549.5394787037,5255.9500643998845,8747.071578337316,41001.13936222663,37471.37735577455,131.58867753562552,10.852959526902607,22.883268780554044,7798.1594893736965,834.6099128590877,787.8732598665212,0,Low Risk (No Failure)
103.96896568770177,17731.14757700035,17960.743989012248,0.509722705566481,20168.523120082944,26817.946032392323,12224.470162552268,41790.988550004346,47933.267460538715,121.976632882221,8.163463150740368,18.537905614468745,3706.7813463360403,1051.3062482998607,1163.3617494144464,1,High Risk (Failure)
128.64997908842656,23741.428197730307,22788.628187822098,0.9371895488758545,22891.55111431698,7944.05417003297,6651.718940317937,36574.28508509672,33530.28074332969,124.75441943325482,10.25445725648533,20.335462111401345,5051.097894907001,1633.445339451804,651.8994755468083,0,Low Risk (No Failure)
168.7435652308912,16779.15009424459,13215.275572977775,0.0763933167953057,44473.93453779117,5760.07252696623,14623.426356835205,29855.33847001566,13273.63250386766,228.8668325711087,10.357515846852822,19.131157428291814,7576.92982110649,837.3522790734601,1347.078853808263,1,High Risk (Failure)
185.32767727296763,18841.232001310505,12393.796089125153,0.6825781370900827,32809.096667504244,18672.172500721317,10173.401981392988,36246.9351654901,25664.64016943478,242.74164529633558,11.874515125798176,23.114173023173787,8192.232713959125,1038.0226307114458,1250.540106720287,0,Low Risk (No Failure)
211.15712356662564,8060.544277936044,26553.24424206624,0.7567798069785374,29834.09235364762,23062.902677406546,3533.623615122149,10010.802339037768,14203.176380141456,100.4827508801953,10.545191150184172,23.42953338181153,9627.045446370612,1102.3814861506423,654.28645451091,1,High Risk (Failure)
121.77642204812388,29718.269946963297,16407.234992401707,0.010607423370319391,49224.02946043628,23372.87205398917,2492.655459817176,16408.700634745222,55623.181273059454,107.02706741245555,10.544482094583758,21.6702374554227,8841.269781078194,1787.127715106185,1340.4663917476341,1,High Risk (Failure)
101.52668530817445,19915.656172369338,33662.424942382895,0.7238710383147172,29615.752628851587,7456.162688797797,13924.874240499958,61938.3472371276,14991.337473136546,258.97799114471894,8.62033338863111,23.380026603550796,7596.6923782616095,1198.5328452314652,1222.4903927904186,1,High Risk (Failure)
150.413649992441,7667.632754987345,5075.826494957269,0.6069454128382038,35922.97606279787,15411.44297487783,12467.623979027496,53112.0124175469,51170.04830519966,291.20215607737595,11.59515649444932,18.12311343976714,8367.795871152937,1776.2115214437754,673.1500096384526,1,High Risk (Failure)
66.23008267002649,1334.2544075365724,25699.735890629185,0.6865809280212878,50578.23027223847,16700.017527033066,8406.484481798278,17444.84085861136,34448.11781334546,167.57798175425728,10.095174370727316,21.62516925064206,7143.354541869416,1828.1011569692118,587.7287378330801,0,Low Risk (No Failure)
135.45219016802534,14133.617452049839,33205.2818990317,0.09938277895086012,34602.89157464773,8996.08720000576,9780.924718210186,58379.44440931175,16231.775602056765,180.16185766825652,8.080622209440154,20.670444503265045,7008.319375045065,1126.440409693545,664.268366648087,1,High Risk (Failure)
111.53266649330853,24765.374876195518,31829.08679955944,0.4292107795416997,30792.899612732082,11580.775126631916,1302.0328696884344,56866.91545625732,31616.799541715438,220.01520373096398,9.491622774720504,22.19293967840635,7498.49879630293,1420.4570605581303,1441.3507232198667,1,High Risk (Failure)
143.4203234357986,14613.61100246727,19847.348143299816,0.8452517957571815,36766.66237418278,17818.61857400187,8971.540165922928,32017.782518227694,14739.848332755646,288.8228295813691,11.546910751957508,23.64704528547153,6702.0724172574955,1050.3904087910887,598.7234098185334,0,Low Risk (No Failure)
166.75397395106899,27097.37675728548,18676.477652723086,0.7575367867972292,32562.548879484853,15328.363033283737,1705.9370970593475,11474.523936450516,10948.847836711573,239.87830765126373,8.536157421625239,22.718381475451455,9831.30501929821,1576.0222214517162,1170.0842430293756,0,Low Risk (No Failure)
158.90051847326333,19155.586560443237,32161.19564787282,0.7460934621942268,41548.229091423986,8895.97462010296,12605.355080292813,34722.018637027606,40296.81957979158,111.49332593743411,10.48947967509562,19.731968287069133,6138.490190756416,1168.570559557742,612.7142782866747,1,High Risk (Failure)
112.01664246907184,8011.170716910766,15868.789949494587,0.2708321403399593,39110.84907841249,18491.193013259122,12426.90039149947,16080.707868185356,37166.4032711824,180.36709166215527,9.89393486110672,24.675529743419638,3026.3550196225674,965.6995255887697,1166.6637102394957,1,High Risk (Failure)
218.74170231657325,7222.139118570065,15594.632068476134,0.3715412244495886,54176.8035176828,21623.13126616023,5471.354811874661,27123.919682937838,21394.450406050375,174.7632288439587,9.877853609487097,19.849435731646114,7259.967223810601,1722.2096878849518,797.5250213785223,0,Low Risk (No Failure)
164.5060464850053,7614.910959169169,7180.464675224328,0.2223182092142263,54457.773273383355,6843.726221146038,10384.340527338923,24415.479305347275,16617.305208786624,120.32251091975277,8.733004245563048,24.623252144447875,3658.779218226028,611.3228034624294,946.4268921345574,1,High Risk (Failure)
155.66399660977362,13651.134764357565,20748.022527304027,0.4717671511498236,48483.6199847277,28820.632873661925,1378.8491566596147,20686.459357506137,36290.48043045858,134.11478190035362,10.43925695562946,20.97803319820333,7878.565746789372,880.1609314498476,1027.590242908014,1,High Risk (Failure)
194.69260428132353,19659.439536002592,16838.87209718096,0.050974035791661376,54259.19443456883,8473.956609587956,4424.486773993585,56091.83489338226,15949.012488668282,121.31186428621382,10.987718044379026,21.92306402928379,5897.333012715808,1568.1999854335277,1334.425349915305,1,High Risk (Failure)
159.9461710166822,25925.58629312204,27698.683642698357,0.521872972764897,59939.42633739949,11280.637982808074,8320.468592723522,10074.362545982527,23280.232484688364,169.84411095452896,8.415829627921086,23.645622764459723,4144.750804295441,1658.4816643832642,1039.6372099186767,1,High Risk (Failure)
200.8250780674376,19022.468257046752,23098.74531836052,0.44809111279591984,38157.57560569927,22619.41822787377,5437.378609419816,58154.59592474594,62926.341433542635,157.51279249897445,9.837606770908245,20.219980488023225,4271.121714970209,598.9002630784951,740.9517149509662,1,High Risk (Failure)
201.95403881221225,17727.42966950942,27718.867162135786,0.5953733665488935,37632.027168746194,20496.556570752575,13634.15994592411,64558.16986696927,37763.52260017948,254.66499580289238,11.841097216222888,19.47516088867071,6391.964851380293,1931.2695897806036,1482.370624356398,1,High Risk (Failure)
157.87531939749636,5481.10406972505,11981.907256101607,0.1686282108850954,49160.359301291704,7015.523804394581,14743.061311983847,63871.11002889173,65911.0468135495,229.80466169616878,10.326069722018078,23.73093779943732,7516.640090536334,1253.5411672586515,928.4224556745371,1,High Risk (Failure)
128.41621339253396,28347.60057972635,15519.47848862056,0.16643207666245707,34302.93505046448,23210.53245084444,8751.062604137622,45823.54792473174,65906.27246211613,108.85554232659976,10.276995081795015,19.19455428984775,5366.600741067087,522.7192058471636,538.0472066252782,0,Low Risk (No Failure)
82.75989898995138,23395.759148287667,8632.438947243882,0.3141674127919636,39514.90180524107,27940.53674891647,5173.83573715702,51607.20722166272,34467.25914952811,168.85599839061695,9.575096521660516,23.034796870155972,7841.628212788954,1046.515558608326,1276.222371651978,1,High Risk (Failure)
102.28420210538229,5020.923344285808,20549.453456075666,0.9343745403825013,56842.91221351678,23211.917103028318,5807.820321666402,39046.587903672524,30174.52768321482,216.51677261961098,9.887331766590302,18.400939241129205,3031.6586078038313,1755.3813192178436,1278.1945852989952,0,Low Risk (No Failure)
153.72409300375412,29346.240332331436,16308.499150588163,0.9270121129250806,52192.47130354535,18859.799459172886,2492.268604117609,66824.88699423074,50778.30196344946,143.86450139640849,10.131442823739421,19.298934499986338,9383.365872632174,863.9609477784452,1130.3635057524666,1,High Risk (Failure)
214.85760557520487,4795.5530180537025,20466.409822254267,0.012187551011742515,40596.01569976911,5666.132279096684,3564.766333073542,24677.32469269707,61967.029199346434,154.97789634005207,11.529755099834585,23.48074275707543,9484.6298882137,1230.258020837451,1434.7337737018538,1,High Risk (Failure)
164.74410989855272,13804.486300988012,34353.70016552851,0.6256693299249064,28307.57572282536,13498.897455955052,11395.104393488189,47348.206981097166,39889.637639375505,252.12989447339731,11.937575832285315,18.376486518713563,3466.8702683537795,1173.2573767106155,1196.684866715117,1,High Risk (Failure)
178.21866834128522,21782.32616435891,27865.133164510335,0.9677871919334492,47397.283995635706,21760.846101568546,8309.41971434058,39769.40346967362,31198.198836142914,213.35822051576702,9.389932217742002,18.270501782736357,6040.2666382150255,1740.0546062655071,1338.6703563656536,0,Low Risk (No Failure)
206.4097172027556,23635.132279953632,23557.908845033042,0.921866435515026,20306.993770282854,15026.690688903525,14227.127217275029,48905.208879309954,27504.508156886448,143.03854646807773,11.421770437181559,21.31555119503115,8452.351191068576,1644.5999562901773,968.279509564803,0,Low Risk (No Failure)
92.74881744916543,12224.450346111722,24989.159693848767,0.26217155174161544,46288.755492103344,17851.58116178741,2952.7219576711223,35694.26443212324,20910.128318952968,257.3935128244775,10.21671492890709,23.789301126507574,8923.84714696747,680.719053770284,1350.4611766760518,1,High Risk (Failure)
183.37965053630185,24247.63510510965,10021.02592179954,0.941289950394277,44417.962505676456,6488.230806204477,14012.051133475037,66944.83359967235,53175.92108538158,259.3978495768663,11.158689534870401,22.528518257192736,3543.8491445968793,657.4752243534647,544.2725644705513,1,High Risk (Failure)
209.24047024965012,4354.58148579538,14232.485498234608,0.5969513962618158,15500.255205046813,10639.506181140652,1505.5415677506996,67833.55136245582,30305.440987335696,258.71192501838635,11.078984095937209,21.009699822194722,8850.830379686746,1800.5657466783568,765.2625989178734,0,Low Risk (No Failure)
158.40115627186717,6915.843504672233,25445.78089659951,0.6689516417606249,52772.728700396045,18190.30828395956,2938.2441316033505,67194.48479911854,46888.897159338165,205.16985581459625,9.843058543363112,22.678188210099265,5163.956489898939,1661.3765629137638,824.6632422774503,1,High Risk (Failure)
202.80943975839645,22975.52025087958,7826.310908374814,0.05717965453026652,18515.46438553849,17598.96594211696,2411.5547047522386,38759.50430522446,10559.53035849344,267.1569510485258,8.643697362151455,20.54007664966181,9708.896473670446,1523.1295704832237,826.5786153565559,1,High Risk (Failure)
98.48505362882379,26274.824740535667,13277.676592043093,0.8964374357187366,32662.590552159807,13064.661153740843,3464.3529008168507,63297.597850602666,64322.087626924724,212.73676676804578,10.80402723761307,18.777310597617124,6780.489443292948,1365.376899162287,847.4850081500113,0,Low Risk (No Failure)
145.341860602458,12549.256811038971,25445.436063270135,0.3425392295096077,51715.70638716556,5133.658225098479,12695.035058845411,41845.84669068626,32025.600068934535,293.8847797159232,8.312352235708495,23.179723198231237,7237.1832833803555,1656.9209218989624,884.9628530732259,1,High Risk (Failure)
136.29422043729988,8320.000576320246,9376.073808616882,0.3129891824938761,19238.660568741172,10966.242255821344,3596.3159418729574,49018.64631373516,52715.70622690408,205.28092020921667,10.838088554544665,18.588144559978776,5301.09639653034,565.7001140738879,667.5199659883202,0,Low Risk (No Failure)
98.77659122188197,18496.441403693352,15322.992920892095,0.4675402622668692,27917.54727536201,14696.806680661699,4108.067693534682,16318.205981610885,17888.843762783745,121.37297632700901,11.647103697521079,21.132129988533073,4591.796688105126,1805.1914330259056,1113.0218780209202,0,Low Risk (No Failure)
174.5555566155836,26143.336600407412,18491.762317763183,0.1678789010828463,56953.16591429252,24235.135022742903,8120.50919072156,47614.24319215335,19322.229245310868,213.0966175239624,11.015262956453505,21.430271823782526,5924.520471372136,1577.534583929633,1392.5788100152922,1,High Risk (Failure)
89.77622685540437,6629.734342933194,9254.864860630247,0.7910857215280299,23599.789714206552,5545.176562877669,11326.945664273333,27298.395542560553,34270.69472692923,286.44351279220837,8.22388151054552,22.348114812644287,5534.537075641779,1040.4292165708862,601.559709999037,1,High Risk (Failure)
126.78576050380464,17217.325821285285,34805.046811871245,0.26665965838820116,28963.955919457017,16977.298026230725,2741.7288819703954,61370.27826707521,23674.88446317456,187.10649889649,10.327513995339757,19.97417545427837,8825.444903628011,543.1978129516357,833.4245127611744,1,High Risk (Failure)
126.16264484639346,8103.651742612727,27806.16873587481,0.3878210887248762,49483.42701055171,12559.50047033509,14095.166225898338,13656.724744974777,35193.409916865814,252.88424596021207,10.027017417911287,23.3620084050662,6477.615054383694,1706.3283618385526,682.5666459055617,0,Low Risk (No Failure)
196.9179614249258,22742.046656722756,34639.47933260783,0.1880487531469086,17419.880757692208,27593.54873273319,2194.4495394416404,55907.30820795317,16920.106996604067,245.9416063623481,11.120450860466574,19.519493028303774,7285.999052495071,1294.5592244312966,1213.8953583613707,1,High Risk (Failure)
82.48847481253773,13953.972930595282,31403.200016192142,0.34909698649408205,18653.756586914595,6065.332209270753,8617.809211658587,33577.026170704325,62824.78121141448,203.31957423412945,11.24850799722475,18.570796931220965,5120.925989142907,1609.2139272263487,1309.0412282265615,1,High Risk (Failure)
86.01871029518261,6271.144335074632,17951.984715285475,0.8443335491993377,47064.491937896695,12726.37893681544,3088.446002359578,51969.42247583058,65061.612990933296,130.9456150302717,11.832223076184121,20.85511272660415,7750.335483903396,1750.3146465113637,1035.9721582608036,1,High Risk (Failure)
209.13892519737797,4936.629739897131,17254.6216664682,0.36601339184015114,57025.453708678615,23338.15977345758,3282.2378646973016,59379.58187213271,18988.658585956273,211.86360178991941,9.013387395154068,23.985477612820798,8105.074880568574,1152.893807450863,980.4184004116585,1,High Risk (Failure)
79.23344885929735,14992.298755302225,16673.690288450907,0.7899117002228051,23907.740237202757,22260.353522380323,14286.80128497576,29239.14485708189,55669.960668476306,171.91301320093805,10.624733711405522,18.504209337297198,5675.416310331255,777.0637877319564,1405.8488238817072,1,High Risk (Failure)
95.88695732560721,1068.0767421561413,30486.31278662366,0.10636413302716563,45806.477894388765,25568.180531183676,3549.487546722965,50002.42208408679,19543.055716176466,184.88514428790126,11.818418774253406,19.619157966833832,3524.732291396546,1595.2414450495567,1305.0070973829877,1,High Risk (Failure)
173.01951948959936,29594.80991769646,10979.715768517213,0.7619628388892893,30865.296400911833,23774.26997507816,5431.6235373517075,17515.739761291923,19863.34422648057,107.08735315544784,8.897102752093488,22.07109995314292,5209.599735763575,972.4448848474437,1422.1476386495956,0,Low Risk (No Failure)
106.61777165403912,28198.72230675162,22401.30665894295,0.017634829052346368,23983.379190292704,17681.994113730725,1121.0135009567882,27746.713359362126,69446.87559800428,116.06165241068653,9.483341527352724,18.62247197070245,5858.489265384162,1915.5698446192712,986.3258602819755,0,Low Risk (No Failure)
218.60095899235012,9748.205007303317,31992.788461047723,0.8052705972072509,17542.992341603393,9931.319443267987,11513.31422194281,28516.86949435267,25939.64184803635,195.97609367377711,11.211296658850626,21.13971928149897,3637.454896318542,718.1098660574162,617.1368260604143,1,High Risk (Failure)
186.9218160701207,8588.469632487686,14053.376694088294,0.07681102763992054,18704.188422929794,21185.952515974997,1808.1914232326503,13056.786424782013,10640.04464171626,148.88391223517937,8.182354658109873,23.891303622141322,8055.6359943085445,1183.4637225288811,644.996956031446,1,High Risk (Failure)
79.19247067695517,5588.981512642618,31378.179235487278,0.4156014668646678,33567.885377656574,27408.582603367333,1517.852934805045,24526.794449957997,69870.91117353647,136.27156972156519,8.291455282145723,20.735242589172444,5922.788286812971,1785.153596938536,737.7421824208095,0,Low Risk (No Failure)
70.95207241056269,2301.5494777088225,9391.27816004471,0.6856766363336941,29837.510647245042,21535.07481316752,14545.51066649384,20554.561959851468,24361.89214533847,230.53578971354798,9.172426720489506,18.065647469257154,8293.230424401016,851.7564120315244,635.2552015222844,0,Low Risk (No Failure)
125.49344101040688,12316.917937935857,18204.326196138107,0.8226249276785601,44138.35442845706,6472.56288029945,6991.748781225325,12642.10058889836,48290.13403741806,169.1504454021412,8.966679498023183,21.328659988987184,6251.092527570641,669.0589770299575,751.7764804111512,1,High Risk (Failure)
105.14993195091202,19023.71202300444,14508.358659067564,0.13675502361338754,31862.940605390464,7524.095281030028,4437.759500271485,15659.764795700086,43982.273616842416,187.75395592372644,9.652500453237197,19.01708892708066,8933.315427962876,1628.8262889705763,935.0099460061394,1,High Risk (Failure)
116.95324375530248,13406.880242509249,25273.728908839552,0.36109057899529273,40628.4515984865,5381.557290835791,5242.093810745223,58296.02151683777,28231.78459788043,209.31057272715358,11.770168844435377,23.037677758123763,5783.1633137466515,1711.4491293332508,1438.586795271088,0,Low Risk (No Failure)
114.59965242018501,1289.1078073010362,15227.492275762714,0.4271811624083718,15112.295412037312,17556.673471304985,1650.0354654127477,13984.702896904095,45484.50985008757,124.27804940784839,11.411886722321631,20.218092717680154,4293.546535424158,706.4379776131536,1161.287646761904,1,High Risk (Failure)
144.43217745380798,1284.9990245238475,26417.43752250903,0.5085779218687151,34720.2372547095,15627.92247279493,7625.132305486211,58694.204684480996,54858.37200317458,110.23559181225113,11.194435047112133,24.86947275034312,7482.84643252241,1351.6186141941407,1410.1185300440598,1,High Risk (Failure)
80.3981859731172,8457.41818216378,18010.907993208784,0.22646060375805488,42733.35001017344,10437.633342195848,6156.9330048372485,25222.3334545099,65456.07162622816,149.06555946692106,11.090269354497334,24.0247310154491,8619.800798332297,1822.4854294244171,1385.9894925012045,1,High Risk (Failure)
75.86849593395455,14356.893970145331,25240.219760694854,0.6113530307751418,57819.396603997426,16574.350296868866,3364.6402360903307,67910.339445809,27080.397490278458,103.23489549923937,9.566747508271716,18.03504239673384,6427.905264977715,703.7340160782153,839.3271016825943,1,High Risk (Failure)
156.15127752603505,2686.8650029068167,5680.605265473427,0.1389274799128628,59158.034696402334,24643.565328063065,1797.7543491463334,10299.90722126061,59796.94553165231,246.79713747366011,11.008421591511828,22.560001401963206,5781.508506680095,550.6692275300137,1407.537417067853,0,Low Risk (No Failure)
208.92117209657036,11789.263466554014,27365.09256058318,0.4274938719943202,34626.619496208514,14527.496239815739,12636.736388533156,23551.477768341196,61703.250758915296,143.03929610789913,9.290236140320506,23.561234136217518,9182.119845544225,1729.4058173927206,789.5792106181416,1,High Risk (Failure)
180.18848764934688,28377.197070146896,24791.945967822714,0.7323679001473156,31962.74600248753,19006.36811292085,13749.922263056804,10135.183260136691,60220.4313255029,263.207250139252,11.58029310001417,18.80072469969218,8545.541544920165,1323.3830251869356,746.8298802087139,1,High Risk (Failure)
68.26699546527378,23734.623024837387,33346.26925731633,0.4537417590943016,26356.76144346619,19155.301122765086,9182.815555383375,11484.334452272986,62147.07933780462,147.3733007661022,10.503906481809052,24.383613996398466,6996.037755330399,909.9186315987847,859.7788975072784,1,High Risk (Failure)
218.14735903415698,21867.193984697613,28050.949780778014,0.4006550017730317,44470.658952831305,20208.20864761233,6314.165527690312,34608.973280355,28676.881711990267,190.89645977357614,9.076142511218157,18.58614121837864,3380.9149265398387,864.8062081095084,667.5340086099786,0,Low Risk (No Failure)
212.2311721060947,25573.296563371638,12050.86361354401,0.15759032215646862,38911.55387196025,25962.43044778688,2509.0356651899765,26189.795502500223,11069.430235605523,228.39242478907173,8.414074872281619,23.596091297538248,3496.2035807786333,1353.9458329696831,898.644039135778,0,Low Risk (No Failure)
142.8926025982105,12986.931336264575,23677.8138968807,0.9373395631247,59439.92229877044,22494.848553120417,8675.73725614472,45659.0986688341,66037.11324417085,205.99610372193675,8.438489677424569,21.003323528641836,9104.38648168999,1693.964816238791,1220.4619285175254,1,High Risk (Failure)
124.11266669351465,4761.48148171078,7459.063327804715,0.12511615964948553,19812.122857308477,22534.81915715181,10940.46712127182,29552.785633305124,52537.66217787011,220.01399233159077,10.651621086147596,24.114034066090575,6971.343130626054,1216.9306433317727,1167.4689191948928,0,Low Risk (No Failure)
104.96796002670226,10439.596805657928,21755.48459482475,0.5058331796566023,34222.865535285426,17520.426077346,13113.214342046245,24154.41066527106,67769.97157716236,137.25977212705345,8.057094391627306,23.216088230897668,7655.167819106863,1907.0203612476726,1005.2883693829332,0,Low Risk (No Failure)
181.12769835178005,13523.467077048861,24704.6691954263,0.6628376002907298,28631.268065895558,20518.946044584845,3301.9165611578937,13390.223243777178,16620.47606124509,169.6007537519699,10.262894806314627,23.053955355024833,9481.208381495904,1298.923395810892,579.241887422086,0,Low Risk (No Failure)
180.27951878333448,24933.94367026649,6517.266982370311,0.30712069487206084,23580.086145952795,20595.16648563841,14792.499898576998,22968.915702519287,15725.892085841388,162.56216683532764,10.709077709502091,20.3244973023125,6150.753313763678,1899.0570327709054,797.6617050709268,0,Low Risk (No Failure)
113.15056529849673,5364.369444104981,24797.7288577718,0.3542206780342759,49900.56665142443,22708.67698745644,5807.193114114926,24077.031545818652,21078.057688545006,166.99047355349106,10.974894518509801,19.68378723194443,5429.891976723254,660.9792301522336,1178.7396049691615,1,High Risk (Failure)
63.21139164443622,17610.338023921428,22156.090681151964,0.46050915990817876,30038.272906896134,7119.0915056140875,14812.579993580322,52304.82351371942,15815.506128203027,236.80222876892816,9.054670301283092,21.65630886720532,9430.188504568556,1833.9356846967844,1107.8400236668663,1,High Risk (Failure)
61.75933258535687,10905.54122391547,25404.75640276636,0.5462479676028885,27230.044839373557,27219.425637573688,11947.310323963005,20347.83201111295,52208.366327819866,176.11274267719838,8.1767970697907,18.759964755581496,3097.9866499067984,1963.5379197179952,1069.945460672171,1,High Risk (Failure)
195.21933623936556,3833.5109862159966,17740.50475090881,0.9129854064310087,35749.44395853496,25925.07171802296,4059.830078015607,13568.412795467128,30759.540769680552,252.2145814448333,10.073456637776864,19.560772195733566,5799.125247015749,760.7247794946321,1080.7409959902093,0,Low Risk (No Failure)
120.76572482867677,7431.605266072846,13122.011972651973,0.2961171306119089,23079.474185737512,25408.454672606098,7513.395879700271,49331.532878291415,60825.388776336236,153.7810152663782,11.727344430549469,19.312605594105573,6164.114767159574,1844.9437164817023,999.2808592874312,1,High Risk (Failure)
122.89662520950417,27948.56828073887,11326.335218220564,0.9421466030661954,16761.548112405744,19707.197095887408,5358.939807996409,66032.10241759568,59232.989709540176,228.68002579901068,10.78636059517703,20.06580960419936,3759.8862485436725,977.7990741962589,1201.527781247531,0,Low Risk (No Failure)
105.74508627826562,7575.999904614962,13638.132445142452,0.8970574683722922,17024.15119854786,17017.113408685713,13611.355693234158,64108.73039293592,64067.17197084583,253.96113201964803,9.482677028830048,24.693672612968147,6910.4331664029,1464.2637052517139,1193.607463759065,1,High Risk (Failure)
169.32726025704085,8498.160645567132,28299.20223117869,0.9364464228117573,46481.84037679808,20259.679512174218,4660.922842078204,26974.809384954926,50205.72325005022,278.4708765539978,10.135936353627415,24.993531686408236,6039.714453934611,1509.4307381939204,1253.1103509106297,1,High Risk (Failure)
103.01656230115097,28577.299204109193,8368.182749867288,0.05296640560971011,54094.08442222751,24600.476344280232,9363.217307165263,53674.84579431645,27817.801184318145,147.88421762440913,11.586105800761592,18.944946936909282,9436.798970120482,1322.2352434634179,1416.5657028400406,0,Low Risk (No Failure)
98.02200703878395,14750.58043049331,32041.998236876996,0.25757878249799937,26185.09681575332,28210.517773598156,4176.5487593871185,40695.26573600684,28496.27496211302,159.58575961624314,9.251336302514106,24.829928256329474,5940.11283399594,1155.4284669928372,741.4116008976464,1,High Risk (Failure)
170.3143950619625,10271.904630855772,26921.206530886586,0.8448056670360005,23531.501899397266,22596.83832737374,11474.909504190242,20148.95980743929,38022.111716472355,211.55784037288163,9.325951013985165,21.027660436072384,9517.864557184379,1964.2015309475184,747.3445791266681,1,High Risk (Failure)
72.89292996584217,3906.9997377601503,7058.02954685437,0.7446807264245305,33055.64042834076,24343.811780266868,1081.489941412636,53846.521670988914,31124.596396438348,224.7466078965635,9.904783322257217,19.184149068425423,9193.488181066648,1462.4796446448986,540.984440528623,0,Low Risk (No Failure)
106.0712548281588,27060.528920731995,34331.70535617931,0.33197695216123313,25599.6003193649,24783.51258033836,10808.971208066698,21644.91273797764,50382.67456896415,117.12576724874518,11.654195760424496,19.179052178372306,8119.501210726554,1354.9395760781936,1169.7524950076565,0,Low Risk (No Failure)
174.1191659556792,2529.574612704304,9842.509630627219,0.6394684394921037,48513.78118733572,27251.197746848524,10585.403264068656,13115.36093925203,37763.59082043049,155.14103905664928,10.527017424480121,22.662216054202,5933.0415464657135,808.508874860335,970.823721101543,1,High Risk (Failure)
107.34912470985859,4927.146644717013,28489.539487280876,0.45961167177360396,31849.627080705646,26673.650359197007,2092.6343309270824,40482.9130082043,36003.331349496846,191.9293723765755,10.590592935233255,24.647639734387838,7883.009055389985,1734.47529740943,1376.0722256075778,0,Low Risk (No Failure)
110.43830954391213,20608.11186944226,15415.00519022878,0.9986942530304433,18664.839029486982,8365.705185074616,5610.423883412292,45979.84967746514,14066.940442777259,220.80361850780218,8.049138687043818,23.32385164349167,3474.972663932237,1772.67765290714,1295.8255188781413,0,Low Risk (No Failure)
122.86321742290865,16065.553788184452,22321.978013992728,0.14104663358372715,25782.217031379554,22599.209170108996,6269.248231088684,40039.062409709644,54939.81909430141,176.9724009169236,8.394519738138381,18.35895347294676,7370.015023553987,579.796768064288,1191.974046158392,0,Low Risk (No Failure)
202.41552562940933,9068.298424995843,29824.428792710183,0.40801416699826876,37253.380333662804,12694.8301656312,12202.942560263124,59498.671156001794,63326.42913826642,108.94652723237235,9.383151357185403,19.800613399067064,7065.370581843463,653.4375840288437,980.1805103611377,1,High Risk (Failure)
108.50053695125257,26084.854310025512,22412.544973404412,0.020767886710391203,45178.69858469005,16838.099124249038,2694.425772105593,63930.45442720072,51937.30092858312,108.69309717695808,10.941053185679117,20.80997264921946,3666.3648819171995,1684.8041103999565,1298.3704740855817,1,High Risk (Failure)
114.31203080684897,16252.450730142324,26254.347594105056,0.3685766938381376,57653.824723573234,11755.729330189344,9545.28167297075,23293.69104427257,49208.16984453092,107.79869058037288,8.279888688865064,19.1828800504727,8014.797975059809,1878.7150844583898,1167.2554664096588,1,High Risk (Failure)
113.19298514379392,12904.63981910234,25260.638810259778,0.9571065528560324,24957.453991750495,17012.824654793396,3987.6537238645815,20493.08775684776,13172.475933040176,109.8206613816082,11.71297992518502,24.760507751467976,6538.333377655501,1627.1784374045837,1344.6296330240802,0,Low Risk (No Failure)
107.676357679335,20714.72563137913,9803.847205539207,0.6286312155688929,40149.65013459702,12020.313679580939,7036.306099444764,37333.50934568156,64011.93411467783,211.81773977347035,9.051446420869066,23.363661116761012,9382.639630108148,909.1919100983233,1369.9737669656147,0,Low Risk (No Failure)
78.906372419465,7507.10641419407,28657.45295325413,0.8888879396564826,40467.018691142126,5775.711060450807,2670.366789237546,61247.51889353435,58433.877500821174,127.94654056647676,10.426353037176012,23.706192472298802,4261.031169408941,1510.9168668398438,835.0465949663944,1,High Risk (Failure)
207.12496394496796,14214.163825039666,24698.658484193875,0.23386774363737628,48103.086759787904,22964.9953773932,8633.141869837405,21148.143592387318,51821.50682272133,292.4712660893273,8.825069544276449,19.942020012626564,3865.496064615617,709.502630498175,851.6816483178828,1,High Risk (Failure)
142.02476050320848,15541.80273723941,8173.367206822009,0.832486774619645,22640.77522210557,25653.46650888329,11092.444431470727,35806.234036592956,27579.770806924942,245.83217579590854,8.361867924479848,18.563360968108714,5550.779691449352,1707.3147643836166,1446.6612912703295,1,High Risk (Failure)
75.25774740368057,11905.211942165537,5287.569204331837,0.8603503348085565,26854.95333693934,29948.5104071034,8061.468165564738,10203.618892891633,29983.507399786093,271.9290887195246,8.808590481822318,23.456389649781713,4968.981950506521,938.6923190958163,961.094115433459,0,Low Risk (No Failure)
162.84721128100946,3578.956159895692,23210.8596315364,0.17262727026922375,31719.614775142887,29440.727457568573,6470.429191609099,68352.37526607345,39569.82841204292,107.88367565931816,10.259417824163272,21.453089875639503,3860.438506850455,764.5802551765743,1490.0094157846904,0,Low Risk (No Failure)
69.533935576503,16082.397813280933,33561.75254891632,0.058153027989850115,53001.29703812314,12079.900145188767,2432.485285158008,30612.78699815431,61832.095808280166,196.47085151556243,10.517904205694514,20.031376628307562,5323.010856213732,1955.5977249634107,1250.7298713185658,0,Low Risk (No Failure)
166.16377502615236,5336.930238151392,34784.43386766616,0.003926056989265403,17843.01224792187,20680.297976133814,11282.06464247185,41853.49747108463,25171.035980623295,251.92512687862495,9.769343672067372,23.086728441226285,8428.733338449278,1046.63957275079,1312.2649526331652,0,Low Risk (No Failure)
178.08537862821927,24517.120587505706,30588.683410212463,0.05954413800249625,30019.86565213045,23550.816559843908,12609.2436984965,49642.77586289222,15801.850824823356,176.95444213703706,11.799106803544474,19.502821948625925,5627.49997460948,1317.200484098235,1291.3577333744242,1,High Risk (Failure)
159.77371008044156,26947.67955410773,26818.774317187053,0.49329358056269235,37370.88615678958,27129.817298878846,13847.146142808133,12042.456143118905,62756.939045770865,104.93170071241266,11.648795554316493,20.734283002374156,5692.495980320891,626.7318864659012,687.6442829679863,1,High Risk (Failure)
89.57671288408433,16060.068086626792,34556.21977733281,0.4956613440350883,55960.22396771013,20933.853946709824,13809.224803865152,33846.602303342326,28016.605032831176,299.2714923429585,11.106855211777034,22.05509308922298,5311.50490628461,638.0032793009404,871.2822981433185,1,High Risk (Failure)
126.53097088294575,20231.287052594853,27209.14372267945,0.25125916346712707,15437.664380903747,21999.401754026745,13029.11925462516,39543.805917507925,37977.153340118675,163.57422007046858,8.924598369195733,18.48040294863877,5704.849868906564,1730.75559555852,1081.7008534408053,0,Low Risk (No Failure)
121.41327230928704,19621.196815740113,10886.46953510886,0.661821597989107,43369.19091211457,15152.25105459767,7524.812256463727,47743.478899462694,56011.95185494563,192.18828896852554,9.57928151354264,21.13389736081182,9395.345823891254,1937.6571083631425,695.6064048994515,1,High Risk (Failure)
98.10924496747624,27585.924090443656,13536.218308161684,0.3492649058476389,23833.85099529336,12826.417180409742,13134.062194190281,55078.28207258763,56913.56250941965,185.7377559224787,10.263969058559436,21.180896517313915,9590.009570070215,1481.3634458826532,1083.5371078352136,1,High Risk (Failure)
73.24778686802023,12610.34217835509,14451.679079559633,0.5555073523270456,53462.6067353296,25881.24260040584,13246.524964152148,32448.201624284662,28386.933765567435,252.73720195129135,11.511288283930345,19.50898760225609,5479.751434261437,513.5148557456773,870.8665544213604,1,High Risk (Failure)
108.88388970528376,10296.459994478471,34962.501031739506,0.005933496746056477,15446.544322338956,23535.8429894245,1846.331719070385,39629.187741522044,51523.53342564662,175.80767660942894,11.759683492090886,23.25892344437245,6445.566618788446,1695.3997321055099,1307.4043514237499,1,High Risk (Failure)
184.0553840645017,29716.453503837143,5943.715857380783,0.7078920306979332,16781.8007309585,18365.126363892727,13444.399422090713,27784.169731996997,49868.82963186741,259.6245044940516,8.610777151175736,22.71831400456034,9773.480837730647,1560.8125887670633,647.2442489377717,1,High Risk (Failure)
62.11661006484704,8303.74750802556,20037.2143227606,0.897162194827615,31761.78146268489,26508.311720733935,5128.358817253962,54624.41404819334,21441.633919267166,111.7444248068606,8.55199754744681,19.026566370333516,5175.034309918501,1385.8392845099486,713.8436093822711,0,Low Risk (No Failure)
72.55302101476255,18837.022866426243,13437.800611414237,0.6987269237038791,26361.11838845758,8400.66062194007,12226.31932737001,11830.166645158924,66688.79155454747,125.5381444246388,8.919863373600332,21.5416072360341,8721.453183130146,1243.1210422503568,1464.3797397192534,1,High Risk (Failure)
88.3886031151531,28775.233087110453,29273.096504691384,0.26855410620967946,38203.88403303521,10987.420812525212,7298.282434577211,61902.86553325551,63638.11517167838,299.991390873754,9.025344059854618,20.13836044036236,3026.1164034467915,1399.019300841725,551.6481748388244,1,High Risk (Failure)
202.386140218058,7383.185070555742,17180.376085646574,0.11771819908262737,46188.94914463078,12763.419383821529,12156.209593131754,17342.725970536478,19844.63941818184,192.0523238513554,10.59770740310709,19.906671002111366,5987.214589082845,1456.372574524571,956.1980822876972,0,Low Risk (No Failure)
63.07076429168907,20695.979286601792,5167.824676456085,0.842472128593358,28128.53257085254,16272.09241069036,6854.869182611643,21903.4570892384,67645.19001690976,297.8001574825421,9.166795580390847,18.73670387933034,6181.534829225293,1487.1641702813358,1136.7610170480912,1,High Risk (Failure)
140.91147900501983,9641.414045205816,6068.89386170418,0.734115301064419,46260.244881557395,26517.76308242471,5392.768682229394,28667.69096346538,24394.85819331894,221.3160757073324,8.009655325363958,22.975194361099415,7331.687443679531,1583.3047185544276,1395.0509201298846,0,Low Risk (No Failure)
99.53651744162343,18924.98600128921,23087.264342740567,0.8838572635999593,21078.16603376703,9283.75607404946,3143.6891361338235,60066.377682845705,50447.753746761664,123.02994223318235,8.037680456339299,24.313498093869633,8307.873519660707,994.1902204921971,1489.842831291187,1,High Risk (Failure)
89.85072384820893,2630.2032583364758,26137.580964000506,0.6189223562347216,43071.32687643937,16672.10554083303,4530.136288823422,57481.90026022869,19721.56968507053,223.81909637751338,9.96871028536107,18.021096996003113,3714.3132880565618,1413.0764553325553,624.3082619112973,1,High Risk (Failure)
126.26076040462833,28214.981571901822,13778.38182270396,0.5376246007473546,19722.039833148196,22283.150675319914,11716.382956297113,63966.47186947518,62663.31804643865,204.73539441259578,8.443797896427604,20.631244674928496,3252.7634812428164,1870.1295457183967,528.2800893553798,1,High Risk (Failure)
208.09096206508423,29460.116692997122,16172.019981060685,0.8210785774468501,44141.780292585696,8691.010696313973,1169.1724372020035,43936.438445761414,11711.271832252858,131.53466241590027,11.713798516950378,18.92966726685361,8664.49351703313,1519.6252583339488,872.6202510786925,1,High Risk (Failure)
120.95860378694398,10948.276167997295,16959.77862555236,0.8900072746940577,34400.07995182573,24158.699095776396,3681.3219218875506,30147.337770199916,51602.22389640739,206.64606652282058,8.178445948110864,21.699674941335722,8447.852939942506,1375.4732446461894,1389.7998896061663,0,Low Risk (No Failure)
124.23909053780612,27122.04471107124,6669.159779861081,0.5228275273109287,17661.27354070165,27740.61323530454,9085.162999160742,10350.394944039881,49389.41634658014,211.79259022146113,10.593871557603228,21.417343830298925,4566.613202431644,1040.2411324031877,662.6984983208173,1,High Risk (Failure)
212.0658374522494,18680.775339997545,23828.596219481176,0.34326715707240407,50324.82780264991,15857.087955503792,1231.503694704927,68227.89526857265,51762.53333167361,222.59727725067353,8.093141745644125,23.57229633390265,6045.901070251039,1941.6392667824912,1327.0347743480663,1,High Risk (Failure)
208.66315475386997,10153.955182487396,22196.68872668731,0.7243569348298357,17254.744192723734,17489.666328047308,2480.291911085479,15954.059439488861,45856.228547839164,195.26864845694388,9.799144132818586,24.930695063863787,5520.725776797848,771.9034365115579,940.38292396571,0,Low Risk (No Failure)
168.45011204960707,15510.392451147316,24650.7408921527,0.9903841776982191,45732.200896470575,8302.891109475251,6319.361419572668,51827.26223342512,13831.334455963102,250.0422746221137,11.486045046526216,18.697356763760542,9186.892118314121,993.3395522637916,1251.5541885546559,1,High Risk (Failure)
147.9246211717977,17719.80470858306,30213.487449164164,0.5651975211777511,39121.12324396729,8436.485977134409,9148.610098728026,51635.654889257465,16427.285896499034,131.10031034571662,8.208759585500038,21.667621038731134,5008.00567238255,1677.7782919517015,1225.1370257538345,1,High Risk (Failure)
170.66490429864666,28369.877787030782,28380.08795958461,0.08648444215163853,25866.7366293363,8529.512468414174,2615.628974729968,69518.78945717006,26656.4283526842,197.01147873276503,10.062094170266137,24.210614525340354,4399.328215187765,1992.901267494025,1492.1791308323943,0,Low Risk (No Failure)
165.21806276805495,9697.95252671892,25368.3627284201,0.8658414754199422,25792.870112591103,28642.784124591464,11391.113373015194,60485.241516480004,14872.953039969525,137.7707591444854,11.844458797510963,18.42975583265188,5787.736248525813,1238.9914177614232,1054.4807757638368,1,High Risk (Failure)
155.8878859210222,15983.263535472355,27456.7695701203,0.16555317977469386,24801.743367834337,25154.417001845635,5153.501202685769,11105.07928691218,69904.67567414687,202.55094855048895,9.03530692486518,20.904991305728416,9517.417450758821,1247.1366679802027,1399.2208737255378,0,Low Risk (No Failure)
190.68471464090177,6175.069548852869,17791.696843082755,0.5607470778737649,18066.041869941764,26260.639049690802,7331.139319787812,57467.51901148099,47812.51760674509,144.3220006336243,11.662714776021826,19.08484213821177,8147.616549203274,859.4627760826793,531.075412673383,1,High Risk (Failure)
177.84563653356682,10099.682155866134,13187.651825982104,0.32820175053761746,42702.67992249549,10725.64780183443,10892.131266039456,52899.746877363,47908.699815092965,260.95846906271106,10.162417761032277,18.537149618259228,9869.642553903977,935.0540345319224,1435.7874347648403,0,Low Risk (No Failure)
126.81292412558854,11943.105839679038,16448.63132529812,0.24344563402874475,28744.687603268576,5697.745109887096,2890.6719821892475,26158.352028759728,47411.78197266117,124.36148644768434,9.97476786441226,24.298769809885044,8869.605100083889,768.3384579202002,917.5459405037416,1,High Risk (Failure)
145.98329647006767,6044.9474711968205,25923.838016801805,0.08366341005118316,42852.59232624678,20936.67647035324,7895.395948354453,14740.616212410749,55683.09311706343,238.17498871426307,11.554863462593147,20.599641590981292,5800.034120959532,1099.5002401464212,1397.0328196377668,1,High Risk (Failure)
154.13635535730452,17568.846325139235,27866.976861325787,0.5363720237241257,45408.239909409385,12808.653592964794,6587.3262787265585,10419.771128589204,49962.448249281064,135.30495238943797,11.931553322558445,20.182103539021888,9199.570263316014,605.8660648486128,909.4734245855293,0,Low Risk (No Failure)
188.3833648885812,4066.0122525029115,10722.447911174084,0.9111695845150212,32298.819302839576,24321.44284270246,14898.320670879995,65652.90280655828,62644.477359293494,151.77931803574285,8.048752527358474,22.281033991415136,3345.799906147895,1394.533097715062,1189.4163652973998,0,Low Risk (No Failure)
91.23849647303872,26487.553231472713,5105.139905931748,0.24570509248467565,29431.68420136062,20825.194813300957,11825.39504590341,47680.55073494316,68087.18809164583,203.8758046145693,10.707854591384956,23.838526855403956,8236.820066102367,641.8022418943116,1145.9404619066154,1,High Risk (Failure)
219.17108703455216,17861.321951203525,15776.93421865169,0.27761949961938837,56699.223362905635,17419.053736952592,13718.00453365908,44820.432851845406,66543.89987839063,109.46136139173474,9.572308695296403,21.66350492068353,5086.637893621082,609.3587680665987,550.9953082161604,1,High Risk (Failure)
201.51659641548147,10516.26823493699,12727.031769485508,0.5306372566656522,43026.00623147894,12064.079967979153,9727.193698540308,56598.11931306183,54937.34286684341,203.3855958148365,8.917013331174113,23.52321992189006,4182.805243419278,1698.1782063142186,830.2811028999454,0,Low Risk (No Failure)
84.99224126889588,14173.851006452333,22231.09172717042,0.3277860691617568,17237.32316195861,18487.463700217828,4983.321446141896,36404.603878886366,15185.542035795435,209.21668737716993,8.724177853647166,19.77506455667876,5293.700004948327,1874.6952943277,1134.5482360534738,0,Low Risk (No Failure)
212.7305486174097,16134.64939589687,17670.556181022035,0.9913792184482956,17267.90074095218,15729.901565614902,7265.892771474845,15858.348092812368,68481.16443063554,140.475279458841,10.261999763422779,24.20933915442137,5974.47207429929,1123.074311873308,797.2900769812118,0,Low Risk (No Failure)
154.19704354101117,18379.048016884164,11788.087542753055,0.8505066043781953,50833.585339047655,18221.084355468985,2018.8990356160634,11846.749083260984,62778.64051878866,122.36004197141033,10.307458094016853,21.272801575200123,8047.874685007412,1082.9189954744395,1007.9781179747799,1,High Risk (Failure)
66.23669130578087,18256.344002789076,23807.488379416867,0.7362375967151179,36942.03696294177,13483.943591796145,2413.3212537885784,36455.70815977889,39695.93626248574,146.21153180922923,9.102478246832368,19.091976118199906,5252.782786465252,1107.2447774029692,1416.4800657304577,0,Low Risk (No Failure)
76.87734839376571,27358.614579522167,6546.6461979875385,0.03541897328086374,39871.30599432535,15814.007512983584,6113.322788710576,51478.42857068689,68481.01497917903,158.73026517918,11.590242173780963,21.84600824481933,5288.318516011919,1206.4042878901641,1157.0502107780294,0,Low Risk (No Failure)
89.51344816958134,17859.630158932672,28389.030684004374,0.30963332370839314,41089.425400522916,23616.206023889383,13284.933897395675,61540.51664103146,23674.643033596898,235.70814847011155,9.692959327426326,21.202043610568822,7183.116164937943,1551.098660343471,995.9108358558182,0,Low Risk (No Failure)
216.28805256170548,11701.51423992401,14464.676194466716,0.5666017175404895,17937.347311574613,15175.405875153994,13887.422080556293,19814.764559039053,67204.4434355933,137.690298441095,11.473360645709548,18.990544724544147,4671.921092520215,1317.0860494985163,671.2965372175514,1,High Risk (Failure)
178.15187348021226,24892.995067115266,11464.45948356724,0.5674392512644729,17969.140640229594,21047.187588571956,10448.427543372629,28307.733501066934,37666.90979058304,219.861475859732,11.927096710984628,18.598978436756916,5180.152407738649,1158.1824038727532,1449.6431154787688,1,High Risk (Failure)
74.30576036996152,29000.019628808226,14886.264005716463,0.24787557232395074,50607.817301643045,5532.495948173237,9054.400991074283,52542.1144795463,14609.37899266267,297.6869694548217,10.017256171986729,22.88406193959284,5538.775676291896,1532.9962943252647,677.1687496687028,1,High Risk (Failure)
181.8591384525948,22937.081551678442,11953.708328497389,0.600472863250274,42611.91309462352,11613.978199889625,4273.805578345815,41036.45738598486,33693.894900469386,161.2820100573183,11.794528005445667,22.87743919447584,8613.36720244104,692.0281730131347,1019.3578254132324,1,High Risk (Failure)
187.96533831132535,22819.671157864548,9510.376241952996,0.19964801918133412,57687.457640592445,7195.857875308513,3868.592093001432,18510.209769101362,62342.2859731321,248.27414756632845,10.12111188864301,24.295822986809284,7352.867742213408,1768.7318708220798,776.3628891377917,0,Low Risk (No Failure)
78.46314274862678,29376.67304104801,18240.802360568643,0.06722863557081049,19368.487071314587,29731.29321198887,4594.079186786617,64946.1110625677,68624.78647262181,233.49765431103302,9.201088856338796,21.61535632259035,6809.31600311468,1655.2191917943117,926.6737739784704,0,Low Risk (No Failure)
178.31507731819636,26966.96862463235,20572.751910191844,0.27111176193542963,39355.37964425149,28476.44146975828,8261.516901678315,37208.46723525286,15147.218824036097,200.95830904308286,8.720785573663411,18.141333273712547,8740.846408421741,1870.679806017987,1262.6643172623185,0,Low Risk (No Failure)
203.0550884053201,25337.030638144308,26381.540088756487,0.04481631067080727,34602.533602000076,7717.7349950035705,1115.4555538239044,62568.22927192465,53093.97628485224,119.46236543826758,9.979466876325926,21.35634940292734,9337.617873710034,1522.7553451045999,1321.5594900551018,1,High Risk (Failure)
219.44420940777906,22333.637140329593,12300.574821007962,0.7162943304868383,30386.859791929,16706.4031143514,8045.874078407684,12677.26449344368,38339.30846343127,298.5412621208663,11.17544608677337,22.84507866219196,3921.8608412090425,1553.184721833713,615.6413709259563,0,Low Risk (No Failure)
205.4680422485737,6697.9969196846405,13307.05069222813,0.5534849535843279,23260.69961939162,12511.76486320489,4603.41889052807,68248.48959502827,57187.030730655606,250.1235210078328,9.41681191565266,19.872057802332,5829.945407217405,1377.8657598764335,750.1605698767771,0,Low Risk (No Failure)
103.78246685772346,2945.718246266483,10667.415693010862,0.11116933275384122,37985.17281031864,18951.206031144182,8097.736962624044,36625.79809056256,49756.53185017368,157.9893805725599,8.991989871058307,21.579871188590626,7278.470023038151,1225.8574489912244,1237.1587026887,0,Low Risk (No Failure)
82.79928686424212,25466.73536028435,29502.358384180447,0.17655419224284052,24338.856093576098,23838.96461847815,13221.805909493703,23969.395232666793,61987.96883742884,269.91799196830794,10.604127846622095,18.54989054186612,8596.106056706776,1441.8209661869678,815.1174255636324,1,High Risk (Failure)
68.31540538423559,15072.735527936025,21454.507572473736,0.3858553767217361,51867.82683339099,5580.667836527943,9615.986068653043,21089.77741918597,66561.44959282322,105.28447501879519,11.14850645334234,18.260072057242105,5495.379773763105,1880.1372747763749,1267.1040657074072,1,High Risk (Failure)
192.70314637741552,17406.67188998323,19734.22907403986,0.1324989562662866,17637.85367761112,21414.4313855899,2266.0253139192064,19936.17998879404,38634.097470039356,120.77955157261759,9.580847049495377,21.346559448105502,8532.630223822682,753.6765102477489,1345.2859834315577,1,High Risk (Failure)
62.417709474316005,14952.645062688523,23299.44478443415,0.2026719063073047,39582.321945506665,7466.322406772437,9783.209689381327,15705.272702412183,27367.402290351998,282.50769987982613,10.463086630112775,18.40870104569013,8808.496990676555,786.0432409584525,808.0443380269784,0,Low Risk (No Failure)
195.51501667312968,18593.990372738688,11043.394449373814,0.172754646011967,23226.001361053393,18441.94042185641,8341.981282342333,13083.980376346712,38232.111614043235,297.2356392225771,9.317058009502809,20.962134658126796,9457.26799767756,1037.3130558899593,1296.3239078909087,1,High Risk (Failure)
196.3490400509664,12166.683615849888,17056.961238678996,0.30683813070261834,36693.743949921576,7772.28808110428,14896.756628802064,33777.00136404773,39741.288773034656,172.44944608736995,10.441949893291838,24.74327188513683,9839.491271121697,1883.1159516844157,1236.105806777001,1,High Risk (Failure)
211.31995235614883,15024.198395025542,20967.04543030094,0.24429029453716455,17216.733061982944,9629.585952528592,14578.212746339761,54043.534058148165,38261.240705878605,233.4546333147451,10.836790018927033,21.28511741561385,5000.5537560552375,1675.1194599928804,679.4374904228123,0,Low Risk (No Failure)
167.6163389160202,21962.336913106155,11716.91699917055,0.15683369989636298,46557.55527583681,13273.709868393173,10944.661876066919,35269.89874084918,26536.21589321794,135.6802673383558,11.749659626383758,20.128349068290866,6802.79274130928,1988.5764237940846,902.9001544089565,1,High Risk (Failure)
139.47126765087145,1341.6164123126182,18152.86676033542,0.11624575268993798,51834.76130374985,26039.880670009552,10766.851630133593,23850.436794834663,33852.10814667659,227.82843047451337,10.497612030310417,19.235653672082922,9000.152876237538,1584.012031719269,517.2883907131873,1,High Risk (Failure)
126.01882830582824,17506.987430753405,21250.60472101185,0.825973669583487,16026.344730943038,13235.82201413717,13559.789083368725,64910.23773672778,15191.76228386677,209.70618187148432,10.511280563104688,22.234858690941266,7756.5147483661995,1128.3115478915722,1111.423453278071,1,High Risk (Failure)
201.5339021167382,3929.819148246497,11387.51856812917,0.7573417806725513,41404.6676622253,7927.179183871118,3825.2571560561446,36864.59839290874,64381.85422273291,297.1560663343905,10.78228254163605,19.833989246136223,4203.531588025783,1321.3968721382973,931.9134420498019,0,Low Risk (No Failure)
126.91888580649902,27904.62625918681,21681.720055743845,0.7781256612865217,44574.593985081025,13529.501365008893,7239.449701203849,49567.38871805703,37253.06549406034,216.46641857224725,10.299658155652455,20.671979092866454,8378.591803282703,1843.2241329783794,885.8845016644289,1,High Risk (Failure)
137.2161977058433,15261.928346086373,16545.687874791605,0.163705818138419,32469.499483939588,20734.491740422618,14989.36812314216,56069.36567892621,24246.121557105376,219.77473427519794,11.886796487913461,20.42462576334403,8188.4072700867855,1538.4653798974634,1272.5128074962367,0,Low Risk (No Failure)
165.39098105903122,9337.824782129012,8206.501252610942,0.6442054818406923,27181.373141496646,21864.19127817467,11900.232117330532,51655.27378117152,23279.848757663043,168.2263542117966,8.600415529345007,19.38969343745722,4660.728559520896,855.5195374064082,923.0474014254005,1,High Risk (Failure)
187.46902355061957,20931.207127980702,5515.189719871087,0.40241849425698206,23288.483648551715,11551.773162553705,5286.631651076046,49820.750161391676,20446.372256064315,182.51281100235374,10.433390033641755,24.5793875073717,5235.664291200632,1149.7213315720253,1235.124012679692,0,Low Risk (No Failure)
200.14129336272913,25614.259973158114,8207.768073417345,0.6797086292790951,25816.82793141598,7607.508074683365,7664.076716254493,13734.637989694169,20840.84128834504,164.88204700476058,10.37316077938487,23.740220788795547,6928.765216886029,1790.3810952605577,727.8233258241557,1,High Risk (Failure)
70.93651204959338,14233.451790849558,17428.305427696476,0.3298278294248793,24069.207164445004,27913.43201505063,6292.530664442729,11729.10250845181,12143.356570714626,144.9243405556856,10.39675479290865,18.02119276794546,7676.117212798139,1797.566246816862,813.0945937555769,0,Low Risk (No Failure)
69.0537049834745,7672.450263866776,21468.16035556025,0.6909741511515639,32093.458294310345,27612.603530451972,4535.976206754975,40502.120107642244,47494.842168227085,243.78236273451557,10.006562957960782,18.0022626217657,9462.554106171956,513.7402274785694,785.1065414207937,0,Low Risk (No Failure)
69.10102364442345,1547.5454787108051,33172.4391466106,0.5255949898283735,49390.95819334417,17938.545133597727,6294.318115767648,33333.83216741029,64894.49024057705,159.111184111295,11.736616103828739,21.676493387964207,6337.375393893668,1441.760313651926,1286.5839592313973,0,Low Risk (No Failure)
69.23714547601875,18122.35699012885,5739.910648940324,0.3191395155341933,31652.7928291489,13257.343439818751,13778.832750932785,69067.72029687697,63699.795339666285,290.5094216126014,11.604112792030364,24.25802211661213,9874.889770566448,514.3831194603192,1373.258612103213,0,Low Risk (No Failure)
106.70578775964916,15043.71974518204,31326.366276784192,0.6894891563269572,35423.23996708859,5239.432403253054,10390.063249201461,18662.782201943504,22312.116823521967,206.56136342178664,8.37070559486675,23.098412887800794,7286.993155454549,759.3091253013235,757.5738563030692,0,Low Risk (No Failure)
84.16926268494404,21509.621521727273,17043.306477800113,0.3596367431790025,48785.467940430026,14814.268010078958,6648.334567860283,63138.56497908368,10222.28777932053,162.61920669893968,10.612119694194243,18.59518387847258,6063.773042001038,1589.4183921118513,1115.3386857597825,1,High Risk (Failure)
181.07682673097088,2857.262192078867,13730.100902008446,0.001243438866102009,49134.52144034761,15651.510496068744,14433.09534417498,48790.30043237089,47551.35003614699,280.9837853161338,11.835345535644636,24.077440304041616,3388.9134380386163,640.8873723979035,1253.5391722235854,0,Low Risk (No Failure)
116.7879457403216,3653.005779959766,20935.963827245345,0.18489739522319937,34821.76431028552,9536.621331500817,12729.751772323976,28495.667134161504,19420.243686024307,177.6766784344751,8.77778270659529,20.671160046764246,8356.665756516757,1265.041063251108,736.1208353305128,0,Low Risk (No Failure)
119.17012095794826,3124.1225191143135,13552.984981489823,0.5678905483054052,38254.22854335599,16003.740783648964,7680.793706557439,11668.959735864004,18124.56493923367,240.43739913659547,9.463617559575095,22.12454736079158,9671.103269990648,1404.525351069421,1332.856180087651,1,High Risk (Failure)
177.60402979037173,19765.034821507343,26470.213305660185,0.403487475280505,23440.792101844054,9949.876541420406,14497.553338448499,43105.678458534625,13803.295087545126,170.3820585768214,8.723060061937218,20.761739782251446,6301.021371488938,664.1230175224948,1140.7110551843593,0,Low Risk (No Failure)
198.97970687289774,27673.984581603654,11928.990446480948,0.5010205720156251,52586.11269984757,12004.351715290592,5854.698877581635,31106.31733307948,60881.81539068712,152.62981671085373,9.856919970496785,24.253128914448407,5358.545401087974,1430.938584467076,1108.9180226130352,1,High Risk (Failure)
73.91788158582563,15782.056183357212,30066.065038045002,0.8887277285517147,30235.101564974073,10905.787382747196,10625.794374963241,15467.042461971836,26405.126748372822,106.56897654979953,8.974756550685704,21.7423394163118,6798.7262640437475,1642.6817249233593,1319.01891057538,1,High Risk (Failure)
80.90437501175407,20355.0503854811,11378.695688579392,0.3600209378545035,25286.417641716762,15357.052839082944,5521.100657421443,60170.008916228704,12387.617370725038,226.623448991278,10.096056883107119,23.368095348831336,6869.319456906034,1965.6691373786944,1210.3525766383086,1,High Risk (Failure)
179.73693658651837,2697.561402321454,30210.087146632493,0.7214695378714872,55645.063123692125,5269.712406562306,13514.69949208476,38784.058862351725,40644.5716989945,193.01397474253838,9.57887433020494,24.310621021461024,7713.612078411273,1722.707169539143,809.3564109653717,0,Low Risk (No Failure)
167.98291248866477,3969.4394210021196,33242.335442555035,0.9779579469545046,27191.472508952378,29801.788762412783,1199.2111936212652,49164.82866785576,20329.265462360614,222.17935886517154,9.415778254239477,23.61565889761485,3205.837198252917,760.5648814515835,569.2870537584836,0,Low Risk (No Failure)
100.34766039928479,13854.349802773902,6270.492424292429,0.7632935525589475,54931.44820213354,13881.545328463208,10237.440400392317,31454.85212173513,24374.694842070363,135.21668375048432,8.393774526899834,18.650231857624537,4796.039140707928,1499.5063982708475,628.1995142127414,0,Low Risk (No Failure)
119.97198789599963,10041.551757345636,31066.123866181588,0.7112071607340226,58724.272406922246,21676.872720549356,9101.294391371826,42343.84634601563,19926.560659224153,253.7007421660545,8.95860555594249,23.41294150391664,7437.86173674055,839.5896575408057,1027.5032753953012,0,Low Risk (No Failure)
72.94708528820036,19379.71525767134,14287.080567146944,0.6181522902595573,18662.64261080812,22005.51009646598,6365.7917625604205,10366.084671428569,60414.04404191746,259.47682806124027,8.910671355877954,21.958427305891252,5848.80996786311,512.048743977118,1361.8913057982563,1,High Risk (Failure)
80.31110620079562,1654.521200629837,6561.571951019214,0.3718493027039589,55574.85366045411,17834.449582099533,5433.235725019278,45827.93389051449,65397.950960391565,242.00736367585262,8.891836716409376,21.159110848960825,3590.426212958657,1929.0438029470097,1292.8907651082477,0,Low Risk (No Failure)
203.41373096337915,10726.79759139406,11478.146120604051,0.890811894313803,19764.29650076345,26727.899667774556,1313.4791704848817,46627.800338108565,68149.85563766837,175.6126916873827,10.705797631782866,21.646772213019716,8780.591389230944,802.5862085258078,1022.2554006522371,1,High Risk (Failure)
69.13389697429038,12485.579845628536,7963.071541962538,0.7786746648941558,48138.76102994021,5840.231005322417,6217.933164820535,35138.10685846883,59158.0194463237,118.98610593312455,8.13978067062176,22.78665154544445,3523.598273087562,928.5010495419559,982.8871341918947,1,High Risk (Failure)
122.1071881930435,18494.117257836864,31403.94060300925,0.8871419986941438,59253.68018698925,16656.423182565522,10985.99802063419,40150.01470110366,27798.754604853322,262.2968849212307,10.220359145775817,19.569919960667825,6745.477051837181,1901.7496685172757,1483.7440685495649,1,High Risk (Failure)
183.35474879272977,2309.3895679564666,29837.361864471928,0.5928520048922216,43426.040425195315,16407.002756840728,13941.227328073093,53270.46351010805,13630.693680468827,135.36584071156813,8.64649252361555,22.922828557036496,3259.6082573982767,558.1577584310558,1008.708644570584,1,High Risk (Failure)
159.8397576846372,20707.003260607835,16989.154474818075,0.9941737916817344,44559.29860167115,14162.85884214191,5580.768371977824,10869.941069389473,60274.8698416282,101.24954321538182,9.756417910000721,24.158871497962966,9739.956252219954,531.0105194358329,895.8811091535152,0,Low Risk (No Failure)
98.70301252141424,9766.024314397007,19557.597637796807,0.5963798327023657,43406.057434272865,8450.365136891656,4242.563525069794,62624.47489963713,56057.33210581532,185.5176147294644,10.64446303662221,22.482843588359213,3371.670565496712,1143.7110207701048,803.6569978188556,1,High Risk (Failure)
207.32265735413716,21402.32186526438,13454.77037299054,0.30930766548529764,32694.979146190628,15779.116207776593,5048.310853828287,19133.101981257965,23952.027343628157,128.4658620489215,8.210854906893971,19.398192662992276,6146.82525686523,769.3124193657227,1374.988711772606,0,Low Risk (No Failure)
84.06670257656451,19673.330754965176,26178.098531348598,0.6091206222132969,37354.92790144775,25036.04236673766,1027.4682563533745,57439.519672695926,53916.672142734315,235.38862584138823,11.401834598332306,21.18070072336301,3978.154886302233,535.3888190449479,631.5039119308275,1,High Risk (Failure)
192.2973697556405,13412.56122074967,19714.35221624202,0.5505041407702178,31736.825498978433,12830.423578917267,12283.385789592563,35179.16861472099,67116.66975245459,177.6587906515059,8.004511911063055,21.643907093705575,4167.029660757867,1841.1814055132709,688.355403091835,0,Low Risk (No Failure)
63.77519434328466,29580.199864401322,6752.929725637255,0.608867094629233,32480.850352804824,7902.672996372103,9489.809047707095,38993.23310188099,16197.491063544365,290.914663767595,10.579215333266399,24.450466284710878,9487.844440070301,1013.09131521094,579.4711500341464,1,High Risk (Failure)
125.39746737569543,25068.248203160856,13426.498192027992,0.5349047841897949,41812.57036053251,25661.087856869242,11380.432563795748,30466.15982331031,13781.731172276493,140.83424905579517,9.496901687672928,19.54691385152398,4239.133594287733,1290.7805351135419,1321.832331668208,1,High Risk (Failure)
94.07426584142571,29932.495634675117,33747.535166975096,0.21941563855690382,17048.647490988456,6858.221515823427,2450.9713189867825,12272.26056171556,36273.8012428231,204.22763901115349,9.640237055137122,23.292536586281003,4746.658842892861,1348.99906170681,675.5818541420145,1,High Risk (Failure)
170.7642503228564,16032.598436724298,24244.711071928636,0.4726647293648447,57618.97461387127,5366.980876693382,9697.247866661057,58450.52400892917,42621.644047981594,184.34535913746305,9.267479698560923,23.125057365970903,7400.838618015716,789.9778915930339,642.1053403023313,1,High Risk (Failure)
168.40732882940415,24863.75398051156,34875.692875344874,0.9383297785765186,42679.201464348065,8675.77351301207,1842.7165642180858,45233.81969580459,22058.85592268713,197.7295260898548,9.994831223371916,20.35679518154612,5367.800931973162,1494.4760308752261,592.7017158854716,0,Low Risk (No Failure)
197.92682415829015,26368.21581406581,9481.536403136837,0.7026990328172319,32823.233426251056,11486.644264023329,1879.9461115617491,67787.81274800729,36196.899189481264,204.8526955392336,11.737080709774162,23.503089329570003,9837.849677933176,1843.2700696567156,1134.1733233886787,1,High Risk (Failure)
181.7256077787036,25190.7591380448,16159.842793674856,0.45700230937694064,47750.61699118036,13890.420755139256,4721.837473336531,54898.016703183894,23163.86610911668,130.3462879847854,11.332634123905104,20.760714770105317,6683.530833064202,1866.7075476094838,1370.9931803269092,1,High Risk (Failure)
127.39968852705152,20641.719903734123,33620.47412357561,0.20208431497743884,45673.23742618995,22463.20892704349,13078.238376284426,19714.863682393705,51831.730866233505,193.85065197320944,9.969768729439284,23.266152921619906,6381.232415905954,976.6556135695135,627.5191134019484,1,High Risk (Failure)
68.20215346815971,20508.69473351265,9499.31072454634,0.9528045855639408,57669.87513727647,13038.247562851031,5307.771326421361,54765.5540880182,27918.167113237894,241.59314167867606,11.525121176239026,19.234429109747353,4491.979515955914,1442.547567946629,696.9299901780319,0,Low Risk (No Failure)
214.62678173862517,13677.295046306004,28451.66797963879,0.1567043477959481,33897.99408665035,12974.8443543268,12003.1728500918,51711.54668893539,67150.48934617752,184.32401220699066,8.590786253663182,18.44026653899478,3478.7534642119895,1879.030902713996,1091.1941441266417,1,High Risk (Failure)
194.7253271002274,24029.9022902359,29633.708783531732,0.2899583218037868,41878.094980254275,20083.515737555666,5432.482959174827,69387.85120969877,37631.32220782456,152.44937677757008,11.371477714594656,23.862625351809722,5277.700827363929,1140.7791716107336,540.6737696640153,1,High Risk (Failure)
175.63804035820874,14825.862389741516,14172.784614305132,0.3633833709964964,17501.128551783466,5450.606329111006,14679.426079777078,23482.904972920256,51017.97640582628,293.3030739977611,9.802298777998823,20.817341191624998,8704.89682993479,960.0500668447615,1408.6549016407694,0,Low Risk (No Failure)
141.69126539656057,12178.642606292327,8595.219846236116,0.652509992786753,15463.652930418253,26785.094785654073,3611.7801750329813,13493.43268427567,34493.81278619519,247.26387897272454,10.682571410318088,21.150534715413674,9524.629388968893,1849.0191807239978,756.8932283508934,0,Low Risk (No Failure)
212.38188038379593,6768.587598379516,10536.051522099322,0.5888248932482932,37410.46772254951,29166.94385625574,12781.41731923001,54049.35248461432,56079.42809934677,206.11429127691324,9.988974478417969,21.38407453564796,8939.590665104664,593.5164787863267,1264.566753020743,0,Low Risk (No Failure)
197.40228469591554,4683.97370322372,23842.504297143063,0.5718757164709517,24967.53514541343,11640.966659507929,12403.86178543663,69350.22404602566,25877.151315903524,263.598712577926,10.78176067463684,23.003019905379748,3705.2226461662735,946.4800278315945,1384.8450660982248,0,Low Risk (No Failure)
180.68239573552364,13745.725632979002,22149.191698104438,0.009582687713155624,54077.82942578553,27864.34199968984,1906.748541911212,69094.14617050218,65116.7531104396,273.85934749988104,8.966173826708577,23.510028694365413,4904.473732041441,549.5021255836766,1394.3329287127704,1,High Risk (Failure)
165.0255365601051,22241.18424487816,8930.436633008432,0.8696169984498692,28442.183420607675,16784.47652369483,6400.467743165602,18423.53703179572,45112.08776013865,133.30507075404017,8.813121915920641,23.2107178564911,8983.662059797185,1601.9782638632714,666.1587949595432,0,Low Risk (No Failure)
112.84554680033351,12519.598357420744,7336.101929190991,0.20189605613288986,23773.177321507974,13532.8152507916,8718.922751401842,35909.56046353283,35206.10283475928,211.4111400294521,10.126578305734807,23.719157381311597,6821.3825716929405,1451.5727770505864,1254.0542660553397,0,Low Risk (No Failure)
110.88055599549821,2630.5045506781953,31720.000276757215,0.5135220769124835,58337.885074335914,28370.814356797724,11489.800799460247,48845.37393751797,34914.428126723586,147.45466143163003,10.695056798252025,19.455954042118243,5397.739992640147,1889.5467704144035,502.0509119053683,1,High Risk (Failure)
110.22007947559528,12401.94260236366,9356.986072290314,0.1499710594634972,26984.05420190886,14659.651074059524,12884.225097580476,31868.131530898823,65494.0421116926,252.8465723293365,9.646225936940327,24.639977648300473,3577.9680264506983,1375.47248981421,1418.3661505872465,0,Low Risk (No Failure)
189.06640848429063,7069.345084373475,15346.213510796293,0.050645326443726324,25385.276513115383,12853.64037876515,8930.032587869846,57158.430542938855,55897.03678963351,162.63196679601458,10.67789971256877,18.48057502101582,3123.9889005387513,1581.8852885525653,1359.1494311659449,0,Low Risk (No Failure)
184.72267222785015,17690.935727101994,11704.96263063933,0.4836503791761352,21918.48128627802,24962.29426382636,12953.469806086066,10041.428468922957,57516.78848387494,203.9569515972362,11.892611705622128,23.505369933215007,9063.230823249709,1128.3679186267073,602.2331912953582,0,Low Risk (No Failure)
85.70873355389523,6146.9732147393415,13547.258691252953,0.997701541808524,25425.643444051406,29216.453392505293,5531.748921696932,62225.818747049525,10932.103779036881,139.93539129154408,10.252484008746219,23.58704776651654,4120.586790914733,914.9575960840056,518.0790441831746,0,Low Risk (No Failure)
176.53933669434338,15908.340172958922,29140.14853566675,0.35448955078252986,39512.619449510305,11795.860600622618,13224.86215681758,39353.59062940092,58572.31636115188,157.38379512196565,9.758075714675696,23.486158455723086,5196.476091205226,1504.4209875026286,1394.2134273245606,0,Low Risk (No Failure)
132.278316157031,5902.674724877466,33493.980603860095,0.03795048626088149,18809.24705728848,22900.83087353319,6221.4251874094625,11545.383504434678,58283.715599291994,241.81799564304737,9.582092292355782,20.20958796229701,9182.421239037214,546.3597373870086,1078.3008620511268,0,Low Risk (No Failure)
129.0655273967487,4657.194108680125,16470.937937501323,0.7291032835948762,47414.409597871505,21771.583863690368,5421.471315118278,38405.60052498766,33416.53338538775,260.89602703847197,11.596495123941411,20.103452698495445,6316.005991042304,1011.2926051304398,605.0595062550242,1,High Risk (Failure)
95.27136067926703,10269.909805403719,8104.92510780703,0.33217924990331327,54108.41167804661,26021.123478315065,1865.6300983697015,12416.919311929256,48671.08547128436,105.2485337295453,11.445364252573874,20.805728443939486,6286.35524684247,840.3817192776826,762.4796624450421,0,Low Risk (No Failure)
152.5277439072577,5966.928909320948,7739.2663273448225,0.9867755973855576,54918.13933120807,8631.52785937077,4425.025494946701,37308.77445919203,14707.54003245239,220.01138513069623,10.440186327334946,21.892659525525552,7668.6302804079505,1020.3526510150085,843.5127442683143,1,High Risk (Failure)
93.4129496791344,21923.841615459285,25680.203468978132,0.5991970910211082,42339.020607512255,26576.20108603325,11570.268772564685,68587.50897876412,10538.703055402417,102.56293011770019,9.695497586616487,24.0293054702241,5922.7275803448265,1919.2595915459142,776.9807412721368,0,Low Risk (No Failure)
64.4563585313719,11967.69413631835,31850.982548155083,0.6560145795915063,25814.01080036549,17199.759264389046,6456.708252743,22210.481845477327,67611.16093734153,108.1705878201824,11.23318661097477,18.06153553286868,5494.725752779391,1321.936619382491,571.8132639681234,0,Low Risk (No Failure)
111.94814830240959,27266.94692845699,24021.51524920158,0.2154532769556433,59017.059403657,7293.436196968269,3159.0064788401287,14070.669193073833,66854.8961390378,120.64616312264354,10.669745852545075,19.754892688786224,5517.790623690589,1499.3712570597277,807.674376722935,1,High Risk (Failure)
108.20244172160005,25920.423581043804,15064.298316826093,0.5683051045948369,53848.692889592705,13117.321415000406,8391.107535376123,33402.2588756374,27135.59580768568,138.06850821520663,11.019162368566892,20.950787206296894,9222.874716668459,1873.153350754349,824.602808564505,1,High Risk (Failure)
116.37232868040628,9527.151591159973,11911.244670980721,0.774676768373454,54130.638522419074,17693.84961581509,11061.925902898565,49101.602289738556,12746.995909799965,246.60554344318538,11.456196148114557,24.551335832064815,8242.487359507715,1696.6343174019999,1268.1393659872465,0,Low Risk (No Failure)
67.27142085463326,7529.669702262025,5298.792236129099,0.8535502279583167,30247.932821235936,17911.1136647826,10987.712891952868,16550.810733048915,13419.651071216003,205.5849891564052,10.888028179434086,20.03904611908553,7473.675804630122,558.8235095905017,1280.8230484565092,1,High Risk (Failure)
177.1190306898248,25781.874402863228,10284.617375085802,0.5626667806563331,30598.78624664488,20104.7987685916,14502.979348095172,46735.620452604075,17581.553498332956,298.87536330099147,8.781862442528743,23.140877216361215,6242.2591276530065,1606.6706760349477,749.3075822594076,1,High Risk (Failure)
214.69527996788565,2429.6902098659284,8496.338299958978,0.9208065870078121,33462.85697939216,20582.700773480195,2625.936195101721,39013.3159240595,41991.2698204657,116.1891831557802,11.008684418134367,24.923409574080733,9150.674624000369,1259.2891962152871,1432.4117103251867,1,High Risk (Failure)
205.21063582817487,10150.46223923093,26090.950999223944,0.8661889152655807,43186.42985464075,20827.97388212592,11557.44547131059,61927.34000433821,55736.90107467146,185.54277234275378,9.880422538035933,23.4929796508967,9301.565768077573,1649.4252905190613,557.3128801268562,1,High Risk (Failure)
133.27932144057144,22698.925379246102,32213.522575403975,0.8385776663714248,30240.236619937372,12216.670691704156,9949.086256369503,66832.27538489076,47610.71311003979,250.15394998241632,11.118366243998668,19.598411458948082,7392.838925724806,1126.9532072553627,1102.6259569318645,1,High Risk (Failure)
206.40024603960435,24809.9264657965,22394.982238005912,0.12649095932025423,45761.46050768695,24634.249292777233,2560.5686067657653,63516.11555438113,40313.970971353454,134.56405108606387,11.62088698816087,19.50138553329448,3519.0833644310105,1482.168142726909,1375.1205632891892,0,Low Risk (No Failure)
125.54062318323713,17599.82405306519,17336.820878949817,0.06577670341114461,39214.75463516543,19154.36354388695,4060.8547316599515,22824.67051664921,45906.24300716691,263.3881846923301,10.637260656445143,20.833179695013452,8748.536109863611,652.6014534063982,500.9102628528449,1,High Risk (Failure)
183.02764513722255,12416.774693727772,7677.49254909752,0.3612496945736047,15490.296286140434,16571.056425858205,13994.487243990601,46168.84698168263,15547.092250025613,205.5710782204614,10.808634556302678,19.55183257778463,8107.802809325707,945.8370459846958,653.8838566951816,1,High Risk (Failure)
88.05940457975194,23912.414249171696,11702.376347888752,0.33466500998454485,50770.21873679239,9379.154103769666,8798.362775604088,68857.15028439596,50961.51761900324,235.71360736648492,9.614930798489475,23.781758494003945,4727.209612839119,1518.537307866055,1151.360891348646,1,High Risk (Failure)
107.96808441043774,28669.817605561104,8380.935813149756,0.35131554525317554,18595.47304283521,8469.575352668247,6750.266475958519,21723.127876890503,55815.631817424306,156.7917327174003,10.552107782037412,19.155612935418635,4818.687786971486,1445.8380042408653,1210.0796140678754,1,High Risk (Failure)
116.85115975582204,26739.32908266955,28998.411457546455,0.8944653793150905,59826.88068902908,22382.567767039942,4043.98282805161,43210.11238592115,48707.945549082404,235.38386817710457,8.785827066537534,18.315094216928465,3368.744449638103,693.3711340687673,966.4383791837304,0,Low Risk (No Failure)
190.47382855277345,3476.687874718928,14111.62860773566,0.028005319472458434,46091.30198734648,10067.914912767188,12707.067928574483,54152.92551444156,59377.292524387536,157.7463301120453,8.170057543618377,20.0124216632802,3709.506833944917,651.6364363993831,1406.3453447142306,1,High Risk (Failure)
147.4715860342512,17498.720769496773,29330.650678766804,0.5049609189421677,19078.09965240967,16409.41483119863,12266.850136882493,67107.7806622803,33815.46419396378,207.2285678818016,10.035425957329428,21.574681305702697,8334.558919220159,948.0274415788542,742.0122683296789,1,High Risk (Failure)
122.57304586428171,16371.517837159045,27664.839710426448,0.5998679731550471,48811.84194111048,23915.746059604942,12303.593410188374,35045.70503200361,20746.452717341446,115.01094222188352,10.630325735818491,19.55365496279951,9664.105316757596,652.8850668620704,1146.5149062621776,1,High Risk (Failure)
130.8072823703593,24057.113554253756,12243.926845976483,0.3189257154318894,46631.44491278856,17142.005517988466,13866.401119461514,10392.072408574546,51196.78875812055,115.75186800002857,9.688724778561838,23.984525521609882,6001.527253070852,1840.5815948683692,702.9274040240789,0,Low Risk (No Failure)
76.16732976170347,13402.403488900904,22164.406333592007,0.7625256770939759,49581.65531792877,11545.430456679454,11396.95766404303,24625.994301740597,13454.529340905041,217.5805138384566,8.31391479238416,24.51465344591876,8280.336144688423,1421.8150353740098,1243.016070080128,1,High Risk (Failure)
165.9894418721709,12990.507234594643,10206.107589166506,0.18366153878188574,32884.5872574184,11085.31080200341,6193.273086822337,14146.052667123646,34929.31420037736,201.99310941317393,10.386543399526492,20.477671769466216,5956.188756442378,1198.240732060261,734.8429755383594,1,High Risk (Failure)
191.54878189062774,21773.434960804814,27079.534662712387,0.061406583141121684,24412.32075445193,14265.035079524567,11028.346635139998,20279.883781689052,46928.855932186474,246.72478482652076,8.420754383462517,18.197199441752463,8759.720289841562,1576.7823083483063,1353.6812868816237,1,High Risk (Failure)
143.4335421954355,4343.731619832431,29512.548407589486,0.9574905310212211,56161.04195150149,14866.26567496662,2093.4726169418554,35134.84409775768,37189.49248202017,257.78800061380537,10.255544134938516,19.154452156979264,5013.340642134516,1311.5730332933292,684.632064212889,1,High Risk (Failure)
132.05934980130962,21286.308241674586,17551.067303960215,0.2715989235803977,56065.09973453969,5238.083890348903,10030.247537581736,52030.71937942541,33463.31662206587,100.36405719087217,9.383059932851396,24.495452402971814,6440.339294458509,1692.8745927915136,1235.2682025301956,1,High Risk (Failure)
180.2046278998027,19957.262094247297,28038.126548540335,0.998251790186256,55267.66710178131,26418.56206018145,2910.3325377063247,28349.513047505137,41245.58651886861,103.49833160387858,9.726267388423796,22.662571356984724,4671.799184365167,1744.1111735731004,1146.9415695563703,0,Low Risk (No Failure)
73.1635718843299,23388.92179319829,7726.967044236435,0.681681590112417,33130.932736274364,20054.951992438713,14918.911858684705,32096.08263202949,61989.19260822951,292.94049421200305,9.724785005977244,19.20337908639249,4875.247253613217,1524.2887552579734,1111.9482073284285,0,Low Risk (No Failure)
90.49757329191196,25783.906431403226,22242.67071966213,0.2174168342552567,21359.07350223721,20721.226127931943,6918.842843648685,60465.943588233305,13287.468061380212,224.76488026366997,10.72604582965167,22.088846042837268,3126.0222847503037,631.2199292116306,948.3009637842226,0,Low Risk (No Failure)
107.69059218720066,15906.893764800216,11320.637510909044,0.6068597036029475,46888.38140869426,27465.89386681939,9199.048579266495,34342.57173294116,19101.552230707064,207.8259857901673,9.846611986364882,23.91680383310426,5766.091232605333,502.57444663451145,700.4412110564296,0,Low Risk (No Failure)
149.03434197581151,4554.911538708307,26146.90726864388,0.18636523093051727,32989.9896453249,16077.547562396196,9048.447719115953,54808.125537452084,15432.025502149434,187.40600185172585,8.161342334747372,19.280594624723292,5899.627497224963,1294.6284304414087,503.2756093579072,0,Low Risk (No Failure)
86.51996477122495,24295.83263202297,32732.90275352787,0.013133373709933727,35112.21168142898,25517.20020536548,8743.168319571887,35129.76276416397,52827.23955958803,296.74672612476877,9.795151836081807,24.39005294125603,6498.961850586313,544.0453905267327,802.1424859296782,1,High Risk (Failure)
193.26875449187648,17778.975109195544,8682.201640238614,0.5778215062716139,44562.603264510835,21158.236137428496,11390.324379401773,57403.13610952365,28873.387319164965,178.973253245073,10.71395611312967,19.347575170327925,8331.35955251689,1597.08553938155,1243.7590396348046,0,Low Risk (No Failure)
91.23887804768712,15634.481351345612,28987.35932306009,0.10354357195278396,27673.610700905556,28590.76641583962,8562.927090626727,11090.069255630016,69767.64088157681,129.7894127111839,9.284341878496612,23.604551380822567,8688.096155849467,606.0263638878985,548.8977833177928,1,High Risk (Failure)
175.7509859767859,3019.730164699704,10173.55519629396,0.6291131434804303,40352.50187685741,22036.006636597423,10626.412362804167,13734.179667628163,47823.5116841325,257.48619374234806,8.51492444675238,22.00033982767358,5435.436194157759,1390.719811463311,866.4764492147162,0,Low Risk (No Failure)
195.16531649870203,22474.77611533124,17776.056826494314,0.20036030400345028,30855.588532260423,24279.542402955703,14748.677585870535,43515.50385133866,68303.54691181547,171.6398447147853,9.355333513253424,22.989616909052735,7868.8659502857245,1287.1923386958824,1087.0487639628532,1,High Risk (Failure)
95.8909694165642,19485.91598281916,12755.18756443436,0.12319188804283021,48186.91887747673,10238.235040562886,5250.173619095249,12797.898566643045,35047.32675057437,121.83074865447449,11.30351841143085,18.668919606254114,4723.552588832511,1402.035634029429,904.1155429882804,0,Low Risk (No Failure)
219.73560182287196,24762.54869802829,29966.773505117166,0.9782236685813746,41204.9230005304,10825.123699439897,5412.008937624902,15311.454594746967,63061.40858564203,192.01575025356505,8.126066508517994,24.775567447873986,4365.870860543857,1817.2423983022302,1349.7847491411553,1,High Risk (Failure)
199.79177495461522,16789.37863232589,14815.748174867387,0.15509360627100233,55894.05676199796,23359.896904257537,3338.210376421834,61201.27660903842,33537.55512050324,130.10156989969482,10.802347099665328,19.698310517154905,8092.211525453241,1702.4561821884959,563.8081324679677,1,High Risk (Failure)
199.8891734619329,5964.357571218633,14676.77709899805,0.5139047125496728,26594.786392650836,14578.828899451755,1421.4390783678664,57851.30746298602,38504.534127636594,212.77444188230783,8.597541780572557,23.984526550871678,3331.4290191324144,1803.543912021197,1158.2418849306266,0,Low Risk (No Failure)
140.42193489683075,13160.705732159362,14918.024299100056,0.6196641516197087,29730.549362955746,11526.008332674912,8560.116930234093,19550.0063851436,14970.573909249722,236.2032521454025,8.328000591638318,21.974128539789678,7708.486857819759,558.770505748214,913.9189942191693,1,High Risk (Failure)
192.5980014643087,15568.782779190768,22495.85485649138,0.09208049312361977,48552.62573293098,23542.434409491954,10708.26137257636,56556.93326235007,10327.65670190999,103.21142764600486,11.036668567519225,18.261782343620705,5564.326876048384,1640.6930577649257,1211.294366691665,1,High Risk (Failure)
183.07570365410137,28042.614639824093,11647.80291318342,0.06224372615878093,41775.43998832804,6969.237847872532,14583.408326658757,25004.648359343013,38644.850784124996,203.22184659711803,8.534920979660317,21.997779331264397,3578.90924333427,1770.4882230374428,1436.893757197679,1,High Risk (Failure)
217.2034035609662,7032.7123192642175,16147.57522737605,0.545994135422975,17696.047914639636,19322.421542085365,11984.224748437191,14736.53457546424,27460.99111081241,282.4886721879474,9.042442335419645,20.51191438442319,9540.564260871924,1465.2916969065268,1302.819918697428,0,Low Risk (No Failure)
147.11825567373592,19054.68653715067,21729.27180029476,0.03931948766847326,18930.659481664316,7560.967244152015,11114.179645480062,42417.2022624894,10739.721132318426,153.60959650720713,11.244970792861455,22.134727173123274,9089.704075450349,665.9918012426517,861.1318559695592,1,High Risk (Failure)
218.50866513052253,18043.39362190282,33052.298479414065,0.7504943844950965,37355.60662933631,11423.121626282402,13107.626029845154,45732.008536340756,61856.00363024911,120.88103994036024,8.187035066088594,22.356317359778913,5953.998669817756,982.2129233398831,1059.4110664886007,0,Low Risk (No Failure)
68.31305240868295,4799.423940863502,32916.86081106718,0.812451131720594,47320.89118224542,12584.231438218307,1793.72760558874,60417.49184793093,21754.078282386436,258.12667576768047,9.100552741018667,20.986018368091646,3964.373234629187,1988.0161264394749,1032.8628142511795,1,High Risk (Failure)
171.06409176157297,7105.326164777777,19543.34180271341,0.7617208910951879,53950.87782137044,7028.985272340356,5134.805096411958,61692.101751527865,43595.08099416171,248.2057247423593,10.76993782513143,18.87331310589637,4954.329591939251,1076.8963434078355,1245.7734308443523,1,High Risk (Failure)
73.76514512527092,23965.28961424487,32780.222528097525,0.4219693806087417,18314.748240767673,5008.6091996135265,4835.480870628624,14368.719527491654,45211.22840060806,117.9924348676352,11.673085733379786,19.11865535394032,3076.6105292037587,1774.8375741429495,624.0134963915391,0,Low Risk (No Failure)
99.88675666382,4092.0849491613385,11678.10909623713,0.8828056791884848,20905.122829978063,28784.92390652295,4301.801985205855,38661.61004165749,45349.09183387666,191.0244697410933,11.080908511698011,20.129369408128976,3167.689643765286,1175.6390063559302,990.7685646667053,1,High Risk (Failure)
159.40679184793763,20635.13766709499,33770.21260293304,0.20804665426626923,22168.98309862567,27043.86212189523,9524.577785592723,51479.38963405583,50084.92163890054,233.37421304130828,9.638286320789415,22.058416052400588,5606.387303244735,1567.5177299867362,871.2275197084678,0,Low Risk (No Failure)
140.95326523758905,13212.448228588368,11236.650623149912,0.9965614195138568,49876.1275033272,27216.025788715124,14103.387432872689,59838.61989633667,56655.23210306073,107.84884893931334,10.283501730539584,18.96401159036155,7774.526080977964,1649.3381574773066,1442.3966586184592,1,High Risk (Failure)
212.81843316667224,14038.368274224382,20930.093892288874,0.2516794038603103,48534.83147382701,7551.527587985578,14828.20576092224,34769.885186973275,52174.88180534441,249.9344437434094,11.302447032051624,19.93108597969076,9167.001166095048,531.5072763782966,874.873037893272,1,High Risk (Failure)
117.30603488525448,3183.0827828985352,17284.122256663315,0.6707257400787232,49936.535780957514,10265.413462321543,6295.069036592247,34310.75468007551,15491.79952504595,112.00135299695225,11.917106190010728,20.88057922756276,5494.20449833356,935.4711371367473,620.9863320770892,1,High Risk (Failure)
105.71393380509772,23554.109391965998,17718.685383897857,0.8982590836748244,26633.613234522953,7369.378034784275,4162.801374267618,41567.41670672662,35753.70469197722,141.12401326872327,11.103939798643788,22.47426853525495,4484.760688652044,1182.972847294503,965.2170010201337,1,High Risk (Failure)
210.83589105505797,3539.6623266009087,12759.207099119649,0.6580925609396678,48242.899745808136,24505.834178795023,11368.509277613997,58135.799972986504,39333.12074227151,274.3948127595943,10.998804318293445,19.204290483858298,7369.366272764902,916.6593083107603,1210.6498585538866,1,High Risk (Failure)
161.49819021946996,12943.71621119041,9339.647060209305,0.6767665412396405,41723.66692344869,8922.29062434791,7801.200911413381,41367.50494390023,63115.81442032719,274.90108050481956,11.535062874498408,22.05063579079321,5081.099431591539,751.5792001985527,658.2516406107003,1,High Risk (Failure)
146.60265258817765,10245.702363317136,5923.597065822398,0.15745295718984664,28824.377407043576,23572.72115122007,11166.472758011534,43412.60799655314,49994.984760023974,299.78563186262414,9.963294148832011,22.931601694015797,8961.305486217632,1168.1353330469647,611.557033965918,1,High Risk (Failure)
77.2626283189287,2157.7534443487857,10044.232576842413,0.026693158586854282,23680.21846566198,26385.821332576943,10208.90049806356,19630.187675944857,39263.311790869906,262.1826912992849,11.948186680773102,24.077159574989032,3320.382150460726,1195.285937727771,911.7439447430517,1,High Risk (Failure)
159.8174919482517,12207.414365510122,8006.847699286528,0.9965220719246723,36349.04374299594,17524.50408582257,14359.80486529426,65244.50135673199,65254.306957898574,104.1270849833599,10.625685883662026,21.68996799591597,3383.8076942970365,744.0913356266799,1236.9493395994334,1,High Risk (Failure)
175.56270909690545,21842.278713211083,30664.578640878728,0.03735163481581283,52474.06751419669,29670.760857654368,10104.148313269518,42591.604468620164,17136.635474802973,237.8163176473238,8.243056760122359,23.08449783195559,4154.699898409806,1328.4295179603448,1283.0373428921407,1,High Risk (Failure)
207.02824538232872,1562.6361229282475,21904.114214385558,0.7062281699579737,48414.172310495946,10245.650898717924,13969.186281877417,21033.063561209725,66763.0992028107,187.69450133099468,10.817837788367404,23.755726165344804,4076.796764846526,1020.1774012737251,728.0977760778645,1,High Risk (Failure)
74.63789398364078,20108.152390670857,32846.503869427834,0.9370546335657753,34030.79843342637,8119.949799653915,5351.016664031218,51162.42193077749,21929.87118583639,256.14669664057084,11.383782135942957,24.05380726116561,4177.90817608995,1517.040084151098,1424.3094290323952,1,High Risk (Failure)
89.0846187547779,4885.271135743655,14277.683314198564,0.34680739931790383,53333.887853136745,20418.14873273448,4674.9008590675085,41676.650059588515,28619.537264324805,281.61323209679466,8.563981777655156,20.450430260660752,4685.49984922683,1671.4140052403734,1442.3988795207858,0,Low Risk (No Failure)
185.5835163378348,20517.236822371633,12188.294960846159,0.3651633556780287,49720.65767180401,8362.553690049283,4914.71037516503,16678.52078797541,51576.43923412776,237.49682773740977,8.098011071590513,22.590413637438573,8959.937642535548,1376.7094496019913,798.8636230562436,1,High Risk (Failure)
112.94368397642387,25286.703068944462,24673.888396991595,0.38372217471945447,25855.04062992285,22680.15366167463,11634.010690196767,52248.46578377018,57514.22555156892,101.63091889188594,11.601203742766701,20.573020709965874,7964.551543388237,1369.7205714210472,1114.628955917377,1,High Risk (Failure)
87.46868573572856,12292.303610339331,17992.406108063937,0.40632747304672534,15856.451411673228,23191.829557695837,5694.139155452801,23757.699303519854,50930.743553549735,150.54873154159213,9.855387109559338,19.527940398642738,6273.176716367722,565.7413758536233,1088.4071710226526,1,High Risk (Failure)
156.17186668803726,29300.25502072256,18540.08098217866,0.47598305486054704,25927.993635020146,20530.997320234223,5685.589315443649,66844.25895614474,57113.89635053852,216.84670994183602,11.538568496179236,18.533188983516702,5377.623371171845,1467.9551166766178,1134.1519245304044,1,High Risk (Failure)
176.6677580079117,27126.32417774273,30226.66930134455,0.217460343603895,39469.97889779485,23141.12970701668,13450.984091396682,50449.68203447124,50044.783906975295,153.69484216164057,8.722164709770496,18.24196453512131,6267.8625488932685,1006.5008717491835,978.8645864511816,1,High Risk (Failure)
68.53567951822363,23784.331456389227,10651.843022014767,0.4499595763686095,23193.042552511106,23227.56446508251,14836.263946271176,22243.53052591117,32619.29075803193,129.61272423829527,8.039842125936323,18.19769158473077,6676.7789662611785,1351.6350549588374,1110.8912068202999,0,Low Risk (No Failure)
105.12553161140903,13920.016620301674,8913.669096541817,0.23143663046342466,56415.01027525203,21291.649892188925,4062.7936163207223,10133.21932061173,40251.921907753494,268.2411996716354,8.465916599432287,24.105555884437084,7754.879097271856,1148.1270936316682,1431.2236222091099,1,High Risk (Failure)
78.75262490883735,19059.49701494685,13804.357320770432,0.4634035473860345,35034.54549296364,8145.032300001838,9163.61459610798,27663.920021535716,67821.4070973469,100.72093183145805,11.57578174295933,18.078122138369405,9447.690464584095,1009.5089350669298,712.1179559510349,0,Low Risk (No Failure)
82.53712326076797,24665.645956315384,15901.774382963798,0.4523741770233006,59566.85353352454,28221.14939690636,14409.940988595585,58578.672411826934,69518.24816591362,243.7112101475155,9.410365177424092,23.324992472846887,9780.883690530434,1285.881453009113,709.4787943226969,1,High Risk (Failure)
154.0430977379517,4667.463116703563,18590.442511405654,0.6854066230403211,58483.98190015857,10352.186714713032,7702.388876998601,63115.13352783082,63549.76584469245,252.2479663475415,11.317786707422371,18.191777304867173,3499.531454806874,1818.5497034313496,824.0400971223949,1,High Risk (Failure)
61.44615505268675,27272.37506986167,17808.985978436576,0.8487369925931739,37851.129815933105,21899.288134781666,14565.495202566224,17578.322826436848,19226.064995281853,159.36021562311907,9.49887982715222,24.459894428020053,4830.132554677995,1390.3396554034673,1498.6678517824064,1,High Risk (Failure)
109.16639438820584,25222.077744607104,30150.134617801556,0.680199123483904,53278.19901661259,27662.50691283517,9113.930943354448,14328.734413981347,13727.871111873197,273.0142982759566,10.77526791202315,18.324975851645135,5601.90220314955,927.2001986172752,825.64073210132,1,High Risk (Failure)
129.41502765683907,4688.2544872897215,22773.36322371243,0.33804241599703977,32417.493567093894,13315.906172726958,4427.4568616684555,59563.34502930809,19356.84072309616,231.76796893665264,11.07713992416409,20.156382752277327,6304.131975050092,1024.5002286503327,1442.2115946822812,0,Low Risk (No Failure)
214.07872061743913,18211.396058833692,26714.0832989157,0.8561495725959415,21932.735717874042,20826.073086893077,3817.8225392494423,54000.39852716096,19380.878185033373,261.7827260998898,9.61437855730349,24.27114622240765,9093.363164501136,1723.601083865896,568.515578406697,1,High Risk (Failure)
121.49680616386158,15971.186872801753,34467.93684067089,0.5390901450222475,47266.616471400775,10350.446680950154,8173.0332376512115,53930.99643740231,29860.51221032828,291.82995487183155,8.666402821368944,22.52533768882965,9475.20795868303,1912.7344860060941,657.6637804983344,1,High Risk (Failure)
91.8744439830485,16306.551140573001,6549.86527486969,0.11546977517788792,40377.37963400191,21143.195395012805,4027.322185078431,43069.50483463869,50507.08453728708,220.02546941159517,10.420131753239868,23.068503352369028,6879.879542853549,990.0615284655073,1305.64912860913,1,High Risk (Failure)
97.50809600184235,1350.0281237179206,10057.074331763382,0.5155199159143766,58819.168825935616,14439.528185883844,8286.485511896644,18317.873659723362,27263.18468649045,197.24980979984994,8.609466908958936,22.334187508081,7296.712461353278,1170.2866179401203,1107.5003503210887,0,Low Risk (No Failure)
71.21730234260112,11156.861815485227,18801.98716873853,0.4374738227708409,26845.9645322961,29620.04619709363,3691.3189379005394,58224.044526489364,14456.749047853385,228.0140664447557,9.89735585282902,24.287774005593427,3566.559220746479,984.2697937848477,1460.926855290325,0,Low Risk (No Failure)
153.14727362820372,19641.391141499036,9603.704963244862,0.04577633942872561,31220.67241980382,24852.0510869182,1132.7669709572524,35922.829236902835,19994.517007680886,169.74980604802616,10.15607288805515,22.6727327597627,4582.917089178801,1857.8378624599552,683.3768742766307,1,High Risk (Failure)
195.9114249961177,7550.5609750737,5596.397260918412,0.7924877273700713,29047.27622971044,13230.526525169551,3300.776597429023,48152.40884403501,41559.3408577711,244.24025130551013,8.85982028482596,22.658640472315334,8802.459881797367,1746.8187812086187,572.2480795458805,0,Low Risk (No Failure)
184.23159143995593,3085.2948021769225,32318.375221178158,0.44605722566444095,44321.66729163261,24132.823072299165,8380.688995228898,36511.577428637436,12855.079938270348,146.1574445753697,8.882188295625909,22.18590624561441,7980.192507136263,1685.035626258187,543.3517174064879,1,High Risk (Failure)
133.32046247864267,16769.82504136066,33729.9042442692,0.1363853929336768,29567.59039441088,14624.79869339646,1236.2834720111514,36402.32833139115,28274.799872322124,222.10654814282591,9.623278748867023,22.032129612635508,5725.275481313636,1018.6148908096466,668.6042354218258,1,High Risk (Failure)
165.91503116701898,22562.78381948154,23576.237750894692,0.9461962839485654,46981.83128411748,13313.208993864268,4446.274440448938,64181.684427655615,41437.56578859654,144.62420820619263,9.558534516295108,21.694273067807227,9958.905022753668,982.4461293419956,600.4046063943834,0,Low Risk (No Failure)
133.6863195638624,8980.516141430795,15703.887669648037,0.034363029216861074,47603.527736051576,21094.04874882054,13871.736736210325,38345.36416195149,29362.311342111876,155.99634279803388,8.527956094220325,23.673022965708395,4653.833085533972,1767.114592044356,672.3377699855596,1,High Risk (Failure)
60.17793507138998,28567.168379202212,13399.62648362292,0.29630204511928404,59517.00353482879,7130.716510623457,7025.534576240421,52914.85684292092,26691.52732991566,125.13114969054556,8.236606020698147,19.213347155500625,7310.648915786323,1222.7917914005175,1065.7326232174287,0,Low Risk (No Failure)
103.69132959564999,2759.8089995697874,16614.661821619495,0.6967136003530283,58647.842151773395,19789.121565106114,2425.4718448149342,41957.35799004552,20921.41126700629,114.20437538900903,10.50129609937828,24.2704568307999,4272.044854083658,1256.5759495624602,907.3684777614492,1,High Risk (Failure)
205.35208981338053,27377.368394028734,7551.308639182134,0.43648734930770705,20994.836731805546,25602.48224083768,4356.519828274903,14170.535040054629,19073.76260387455,224.47967845866947,11.375159337468766,20.60547051021928,7518.985570527701,1596.949751133683,699.2995480346405,1,High Risk (Failure)
133.96728976009715,24277.031080414374,29324.616135144537,0.46939437853132904,27784.05271434632,9643.276668379433,1534.5893375136725,63264.78027488518,33839.32866770882,169.2949079872859,10.950324517927752,21.088592987962194,3522.6431496601945,985.2892527003755,1253.9132652589838,1,High Risk (Failure)
105.57966431390766,1719.6991319093254,8317.375612059783,0.4391157742826395,42110.39684236178,27795.681601087297,13452.215619725017,17974.779510171178,20518.600883437437,102.35119294552004,8.05550644806875,22.318854117662276,4775.143216095878,1451.6875999961203,1262.6416068033857,1,High Risk (Failure)
205.25416222136545,25720.72768361432,31034.855064947977,0.7722263733856795,34732.556172355966,18317.976782082478,10435.688183825578,40720.24218641898,38673.55188785301,132.32650530356872,10.343728912420863,23.178040143504777,3065.483524429796,1295.6471533470556,1469.0141620150443,0,Low Risk (No Failure)
112.27880672480653,7011.193153942331,22064.561952994845,0.24032276849186684,25440.27905768132,7211.153673477195,11527.521667504945,67566.70949074035,16794.123131036526,158.86103018221974,8.498529807270907,23.574108825079712,5029.811314646678,1468.3896553332784,1463.7543965954967,0,Low Risk (No Failure)
181.96562156425853,4394.867976474017,26783.182051082556,0.3283577851330193,26551.08032397284,28059.962457310037,4453.574115425801,45193.336860530384,34207.71819441342,281.9604010321225,10.512339692985682,24.210701765839584,5326.10416375698,1656.2883014290844,751.7336560066129,1,High Risk (Failure)
213.14157320636738,22739.146812321687,17339.68090469809,0.6238625416173293,31925.509391502314,7532.709170572853,11628.941366526244,21447.091813466206,43589.30505132663,171.88488586326073,9.512577437203657,20.428216229310756,3572.8626876186145,1897.044732078619,1097.5986909500539,0,Low Risk (No Failure)
102.81482827647544,28188.959784812818,26864.665402782364,0.5070029904961719,54328.070523630515,10161.37262606765,11151.871965666018,65761.01069102004,21875.08188103563,165.91294653022712,11.685494528474807,20.21055565631328,4432.768521469243,1138.6868458733575,903.5060218176518,1,High Risk (Failure)
103.43872040683381,13458.479560007856,28691.36027631647,0.35796782555966555,27384.89655471385,5717.139340996178,12912.038964775606,54882.705301117385,53214.28455670723,110.43732597447651,11.613285787274952,21.25949201963264,3139.386309185043,600.2791482582725,1282.4626749012632,0,Low Risk (No Failure)
79.6805272197993,15304.177297753587,29917.499753433538,0.7270927292242361,42243.00601877358,18192.63552335735,7914.343875309501,66350.14688952436,50498.53704197675,144.97740193591102,8.878218786428935,19.62509349787482,9990.061930596206,524.9622900411819,995.8529695998709,1,High Risk (Failure)
199.21581982414878,24624.1266247516,17189.690955367376,0.5669504756388102,58050.39916857708,11213.7389486949,8385.747546041679,37310.043118666006,69071.7168047625,230.1395972560925,11.095463279740798,21.97199697584041,6228.3223040387675,1083.5285611919455,1039.7694275614892,1,High Risk (Failure)
71.0332826170274,27435.72973062852,14219.755429632485,0.661190899731938,48388.50173914318,26677.543773446774,11680.724848680644,28018.92540783561,40612.38049727684,152.51345018703273,11.658041354075266,20.79942494715478,5059.234479439051,1564.8343548345772,1328.9468328822327,1,High Risk (Failure)
90.65487131757212,23917.53721430912,31305.43994754369,0.6135146827175125,28072.923575018503,21872.702279298628,5699.223903894715,44671.81146945955,27588.165956963607,139.1557993062293,8.942453055188954,21.872133369359695,6481.375684531557,1322.8430442125973,506.92535471585353,1,High Risk (Failure)
94.16181860970751,3404.5228604399535,16941.29522312287,0.9011312392861718,46190.947883712055,9950.018355506352,12492.68160182624,64518.6922671522,43809.75145876706,143.35748952714795,9.53182515527183,18.580873866478235,7932.414740207775,1472.9371319553352,1025.1527988606595,1,High Risk (Failure)
210.63587800097048,5648.9621459514965,23918.25414951828,0.7192713850692155,41269.26393950936,20778.582232235887,5660.337654799508,12993.918247446543,31602.34786582063,239.7507125843816,11.290325256937725,19.868459746993835,9547.107379203004,1505.819467029521,1290.1042084212108,0,Low Risk (No Failure)
100.07486380679984,3776.871761237372,33429.54959243267,0.47190910991458757,27657.530253289988,21353.639806031806,14043.660902076006,32281.44559136932,25098.264629723824,156.06836787644556,10.758468143065947,24.937764207199983,7990.91272712413,701.5240434451168,869.8222796006896,0,Low Risk (No Failure)
167.45171129484794,2429.960626184916,30962.882152480583,0.24371713216752622,16542.83110169417,27991.541427187556,13763.174748293102,36802.11027665202,68400.35597179549,292.01515921886585,10.089949775795006,18.574107690634733,5965.517959986539,1660.444689500176,1202.8544368219582,1,High Risk (Failure)
83.56848708463525,18801.532405224003,9522.109790935052,0.6407333593074455,48253.71893789803,21046.519469075494,3825.8673596119456,18404.562622165337,58361.22562997537,266.04218236078816,9.556704733257117,20.19115148751451,3724.3619918023146,609.0061500269387,664.8276349647198,1,High Risk (Failure)
193.25286028612337,11548.040112934843,25674.71695173525,0.2722188008397757,19259.44711771376,16872.97468027851,14432.910355592081,55796.19013605724,67497.83017743946,150.91698695451925,10.493929761391291,24.404882817186504,4066.872789149576,1801.2745206485915,640.4068386551954,0,Low Risk (No Failure)
159.34857079654898,12917.054243919989,23845.478135310655,0.6340369734136087,20674.949160156288,21624.52563095077,8937.614215535083,35619.42635363883,31947.551110015724,254.76608357016616,11.072888094674187,22.650973957255605,7964.892685472745,929.4469075048895,807.1438396898517,1,High Risk (Failure)
122.75904721595717,21203.98064832271,30508.962097153755,0.5149824036958058,45628.07677812314,12075.345077023685,14453.421590869997,31556.464718563722,36583.37721639576,184.42291874236764,11.75242316929312,20.216944915141244,6723.532064762631,1429.4464208847467,893.9437768932924,1,High Risk (Failure)
121.96390582797461,19365.22098765687,29878.600325915424,0.14548264959926016,42458.23548765677,5601.941708162371,7276.077418868096,40066.99294187473,37464.84391133581,126.15279772219839,8.251146428946356,22.771007880622694,6188.0666455044875,1310.080853201995,836.6327419353447,0,Low Risk (No Failure)
80.20235865032043,14289.346128186391,27596.403162166316,0.9719141301256846,33415.241733784394,18091.915570102836,11622.45270117599,30941.259739295143,29580.044090926265,264.2953544771153,10.314527672524047,24.189729098633727,9925.07833928323,1253.2681505783976,1024.9001218399821,1,High Risk (Failure)
158.40207488621866,29282.091523234798,18090.53582910835,0.20400863651076706,30912.237430641868,27881.20673800286,5923.252783679632,53346.973367789265,12305.988609408942,257.21015185499607,9.071024179443736,20.135701684123948,8248.316993592722,1026.1455068303098,694.1710295774126,1,High Risk (Failure)
126.0194945357798,12946.449909755645,30267.487555977023,0.8225837321614322,34888.440989012204,24014.62926693841,14404.503097043309,68148.43960967682,18718.037960869467,150.742025236141,11.562766528881662,22.61144613253354,7922.2977069403905,684.5172108299361,800.837129868071,1,High Risk (Failure)
72.28128990219808,5563.9769311971595,21637.420146068733,0.5683627588475938,49128.458569217815,5073.351445066914,9772.246723411276,11359.868471315447,23325.77247576121,109.20415874681875,11.242200415302893,20.4531476794671,6600.901418026149,1834.7130470936138,1475.7929428333368,0,Low Risk (No Failure)
200.73623947388194,11444.121310029203,11446.135215474038,0.4053516136255215,45925.728645201074,8717.307655665083,5042.855031747595,56667.719974243424,32220.514473528136,171.76497619148648,11.056501799223582,22.028358071843886,7386.206158221525,1786.0537509755475,982.2613450314759,0,Low Risk (No Failure)
71.36558224704034,14262.181686891789,12720.259645685968,0.23259359897575904,41432.52635052959,12287.628098864348,4108.463347063478,43367.796006828714,36208.85551460109,233.00962680233746,11.571282080554717,21.12044979353975,9089.76683891157,932.9064201348651,1267.4642431631073,0,Low Risk (No Failure)
60.250416830635665,22406.371890409002,8378.214471179353,0.269636165216676,37600.70881597027,25406.317788260385,2092.407568072009,44775.78752478043,22042.795113675995,265.6576785048999,9.796016238430035,23.127932772401543,3946.0349635987054,1488.2370101790277,652.2247099493026,1,High Risk (Failure)
75.19444403654023,5993.633755346874,31112.155098262996,0.38351509451030497,50533.63136913313,24652.70744395594,7834.74019933328,34613.87401823352,16733.324902505286,132.99537579559143,8.633499661137757,21.78060884420842,4952.288883323678,905.6193653581347,647.4667067997899,0,Low Risk (No Failure)
149.75007544566182,18700.90573366907,22501.58696983244,0.0627215909013884,40287.93641294409,27316.650395572928,11604.834409152243,45054.83745123713,34608.26123614103,177.81879954894862,10.381594987306933,20.32961648596585,4022.037661951638,1209.3288947252736,660.2141351955242,1,High Risk (Failure)
133.4824315477142,22860.5976763727,5847.941031499331,0.7329326220175225,28092.7691498458,28932.959149634054,14894.925476545019,31195.1796507944,14686.626202849451,167.51352575619472,9.081799554268606,20.43613664536848,4821.589252476401,1867.277320715475,1426.5659308504237,1,High Risk (Failure)
121.47307407772803,9838.066471122447,8366.346177418187,0.5304106879754034,59710.424970899185,24521.183620468437,9094.39351663429,64636.57297857431,27203.615376011054,267.9299040056295,10.927093324306341,22.808140235730793,7994.431653653651,1960.9435116475238,874.0124238733076,1,High Risk (Failure)
111.20793616489789,11093.506708842295,34189.32141260915,0.9322821440707808,33980.94686780389,22680.021823725805,13011.195444841826,38641.10293146994,55699.726977621904,144.9702806496614,8.393985225758861,23.741208601968673,7868.704796788147,1924.2398590851622,642.7644990314486,1,High Risk (Failure)
85.9573449251967,9197.353455693612,23401.712841908145,0.7701595230861525,52797.33677161112,24657.470401932555,2049.0492019646763,28003.050165028446,14649.522144093417,172.7539748454297,11.427422952446577,24.393336597248812,9209.96736969463,1183.5634545725522,885.0580015155562,1,High Risk (Failure)
64.79577437962847,17302.197860999964,20233.52560853363,0.661154269719093,27040.363038667834,20196.238224760025,4011.4963311270258,54966.4508073964,55626.91124168915,188.18006353438366,8.038842061482496,22.514507678822454,9977.67842180495,1465.8171819587221,1178.912805577207,1,High Risk (Failure)
193.83075079517914,28403.47520382363,25342.1753696575,0.4487407508475062,59557.77624382943,27092.4981149384,4758.543953844807,38992.87131237422,33205.25202498579,260.8432881670175,9.111995653843987,20.717720387718312,4399.3409174052495,712.3619591499704,1331.7813833585728,0,Low Risk (No Failure)
198.48114014303684,6100.818219141201,13558.339908226391,0.3206647262228499,16784.75872384217,29444.069711596858,6155.409632031626,20438.03612732873,15204.651480876859,150.28995597280687,11.246874223587149,21.565192994115584,6387.9791605512755,1085.3208928329555,678.5937600351499,1,High Risk (Failure)
200.58079781682528,5875.424830334028,25122.800651346017,0.10401029772814074,45909.92033665793,7380.451976735207,1355.6106259251637,59823.226938634274,25914.868748099223,183.6674491994127,10.482109257865652,20.56269416735751,7748.00531968501,1906.2732836609862,1157.8316486290032,1,High Risk (Failure)
202.4344004217879,16011.26502354105,15107.806248921152,0.5702394424458007,33194.675528226544,27911.294295446598,6483.703819877316,48973.33126127292,30223.384122187003,121.47464288965146,11.004976791752815,21.804172497200522,3432.4657710496326,1718.9061152623992,1462.207444488209,1,High Risk (Failure)
184.34350654838988,9402.111528408224,26867.064073722497,0.5662048235071453,53680.541496500126,23910.98426583934,9983.8205931049,22496.818565464786,32251.739635475613,103.73792824364713,10.439727696848138,22.504790534462998,6323.993658066279,981.85110412475,594.6389487419937,1,High Risk (Failure)
172.89373802301193,9301.512026112312,33755.48825007817,0.7793632650477182,57244.72249564754,16026.03805641317,14756.021118033435,33518.18942446596,17410.27170669386,248.07367355939584,8.42817863073968,24.0628633090248,7781.922173265295,1807.1256488219753,1220.324408034855,1,High Risk (Failure)
88.33316086356638,16006.369272144444,10918.649261512055,0.6813655755805597,26996.890957368778,13340.029479104802,6441.068124214779,31464.44031832119,68684.21678910355,108.2080481824721,11.906037256748904,19.471999835955703,6723.596872271688,1769.1889798223676,1287.4024241707716,0,Low Risk (No Failure)
183.52199620959846,22410.569803870923,27926.614515269255,0.9161871480738876,30205.146506705718,19971.24840765292,8926.0662787707,28453.695500837173,11770.291551949562,257.0619684912977,10.675058814762291,18.217160854201893,6084.532903309042,1721.906248570067,1114.434203764616,1,High Risk (Failure)
142.21671427308283,19123.36934182713,20837.294838317728,0.4070107922373224,43524.77280988252,23268.672921187375,11973.413424823328,24812.214791868406,22286.69449705978,261.84483827172926,11.51829005290363,18.227749221190997,8630.63455553752,551.4052078696802,1424.8516124555238,1,High Risk (Failure)
178.00133751344111,4205.751822948835,15908.83246313471,0.6999594127138372,34339.867549861476,25745.971125580625,7142.673920136792,51939.645128741715,59949.54279379081,140.74573896270272,8.512355755049482,22.32884692784314,9941.312504135927,1585.9412813597514,1149.9600454817132,1,High Risk (Failure)
61.03429724635369,27941.60568578723,20723.346236808655,0.38540311851801956,53898.25309538387,23649.283452010914,9119.67397240258,44704.66906328686,66897.08393522471,256.1630617629572,9.86983921059473,24.44204332764719,6409.7723425041695,927.9490809345034,732.7993850775101,0,Low Risk (No Failure)
135.38686382925033,28074.201167336294,19213.500869234667,0.8492687504381812,58717.14254129462,18458.41282360663,12653.891975945933,41177.25627377952,29767.95123066929,133.25203619341116,10.069637208062428,18.192788950602345,5073.05295616494,675.8725329724123,916.717932632925,1,High Risk (Failure)
129.6419647450486,5921.451935502103,10699.895276068535,0.9162488032826348,39422.506512221466,20029.27321517063,6348.568199614379,41395.36089373048,58583.986073757056,183.04372856002115,11.824480957698551,24.35351755266558,7250.927710257299,1428.1914958052662,661.8058554354023,0,Low Risk (No Failure)
180.63390457548542,14233.187795977909,23506.573497824484,0.7507896749485081,36650.58105163717,6769.341753507636,4659.331695269086,67479.74926337367,42924.81817047181,223.36166024899694,9.180203217643326,23.076985041443972,8148.410834441719,1197.924636014779,522.5284939625391,1,High Risk (Failure)
186.33890284712862,9974.616923569427,18446.797463246738,0.6864198939976419,51378.10349089025,28603.695010611988,4042.8843139913797,46925.92751246065,32744.95128002972,294.31803825250563,10.369270703940959,22.23227675029517,6487.135387683829,1697.6917891758214,1352.3944636928818,1,High Risk (Failure)
215.42321504666234,20256.354613960466,32988.87645701239,0.5880927915139572,38793.345519290066,6985.206107444121,8215.837471024775,12153.263729358654,28034.882416338543,246.67384990050294,8.413338399943356,19.92187692434951,3287.7021865859388,1926.8209382891387,733.4357339112329,1,High Risk (Failure)
216.85899855074962,25798.173237925763,18324.32606660359,0.7010671831098774,40842.00103204041,20167.34908656072,5947.729139252329,59914.59773529564,20278.667584465056,245.93527544273712,10.772848083316072,20.226657250316347,8546.760172038215,1344.2118674676524,967.0016809474021,0,Low Risk (No Failure)
107.11182273113371,12195.477133903238,25970.822421262852,0.033187630225001485,52516.37476473118,24445.749478505095,7833.478286163534,63009.51491186486,46936.176283042376,250.75713972991645,11.756075316938816,21.180738923318362,7611.2708882438765,1374.5238222376252,1225.5060202316683,1,High Risk (Failure)
84.33668531556366,27334.426924735777,7298.594417889461,0.39835532196590906,58845.56212397789,15111.992382698867,12206.909652331782,17980.77904450247,25759.57378132177,222.88462424183973,9.82110550550283,18.38073601222377,7494.197815196292,1197.3677940409723,866.5543199484371,1,High Risk (Failure)
120.20153368494653,16799.231473006854,19279.45071047661,0.4381223470808632,37896.96518209478,5139.250140088765,2059.13642772959,44408.264065899864,66747.79596344513,231.48391017496883,8.31877243510464,23.984180324036615,8586.258698611093,1665.1238964817026,653.545546126846,1,High Risk (Failure)
153.57244980892654,9358.147084995075,32973.5126324193,0.9694635295458321,53975.672659237665,29760.79245709894,12217.873415769725,16931.30835875139,44193.09862925331,195.3764298462147,8.026238975579409,23.717977101463774,8872.767562798083,1842.1802098594687,1129.1987299165053,0,Low Risk (No Failure)
153.07786358738986,10748.794818807819,11116.594263815716,0.44977794156570317,48746.28399322738,24116.206019775655,1236.1521605500166,38256.31471061369,29862.401045272996,255.02209819307222,11.146534738728974,21.371636459834626,3470.5956599114725,1889.2591026717298,1295.0884851701155,0,Low Risk (No Failure)
101.5077493490068,7393.643948981725,30264.980901841493,0.20440377476553617,34512.90383907447,17498.025685280016,2415.3780528587927,68411.25554740497,32157.79389559835,253.5600346696622,10.331779967765662,22.422823797331773,3087.9343420388477,671.0188907893194,1356.9314148119838,1,High Risk (Failure)
165.88443719546217,14973.280353711487,13571.942856973437,0.3848794608843151,22147.76164678111,12278.46418698423,3871.1791453282644,47998.0625793007,24985.3523363799,118.0657111047251,10.441903923683537,20.264906917436452,6891.537902616026,1158.2099331623872,1198.79866620895,0,Low Risk (No Failure)
108.14052957068314,23224.06918003492,16927.7560793194,0.4182555532560479,45961.67100989079,26496.868751756712,6864.241679555771,49165.88379231263,13048.906541461316,298.40121097964925,9.54583242123689,20.99602406810574,4398.439503092296,1343.3633892842113,953.6328924145405,1,High Risk (Failure)
208.2540200258391,29491.99483743619,32055.149493250134,0.6601726416469569,45275.58192597136,6636.593032550526,1168.6989134161502,27685.437253269058,66982.41677243944,125.32341930615388,10.219690071269977,22.991384717843236,7045.102338719655,1453.8492166373903,589.3663204919969,1,High Risk (Failure)
199.31998420360182,2143.109968490526,18503.728179057165,0.20194086451198257,43760.18077754114,15621.551450338218,8097.545873040657,61665.78951744796,43266.254589634045,288.1796560061474,9.41171790398225,23.891065343832828,7975.565798940218,1637.7156264665045,749.580683828736,1,High Risk (Failure)
206.32778621576944,12276.693397749377,11026.12207074973,0.13778552067509686,48835.040623888985,14675.310081965568,9615.865025711644,20176.91166870271,31772.862060368436,229.62889639027588,11.01818275253194,19.814740265125817,9683.280983059056,1706.0236793732627,1449.8430615322236,0,Low Risk (No Failure)
201.75643971778993,21310.088777130517,16051.23522754202,0.35996152488315547,54128.67374927985,14648.212907329098,3760.7421034254826,19394.582971545136,49874.43152535075,287.5778142844108,8.14888868179796,20.898753248458704,6894.314798044921,1269.7738465356313,710.4328340810755,1,High Risk (Failure)
178.76050995185395,18963.907140726446,14337.357577357907,0.5009294044165055,46061.81741334305,27008.568535732902,10628.94857734794,63887.857383070244,55656.98997306671,274.2728824674137,10.093709743234893,21.50380103380219,5083.728424221099,830.9591640872326,561.3412541126185,0,Low Risk (No Failure)
78.80419948433678,24203.9898998102,20151.73400811226,0.16955799437013552,38562.02578766568,23528.816832141467,9079.535092492952,30834.667699737045,54376.391976795836,163.64023318861322,11.217038548141481,21.69852485414698,7681.698515622175,1634.1062035505124,505.00167773951887,1,High Risk (Failure)
208.95179128111644,6546.02174320752,8020.808033114094,0.9885246673259216,16453.58608119068,20631.575688583354,13533.058814116364,43538.33205549139,64312.30790905376,184.2250946237077,9.496159358294824,24.486556802589,3991.413991156036,1479.6317099736043,1185.5146423443878,1,High Risk (Failure)
212.07346729204733,1266.8260311360043,20602.69812817503,0.2923725843302546,29686.839239326982,25082.822805180513,8075.59023601155,48489.5667744827,54340.91738094098,229.81913284701977,10.706121915036228,19.041134103059935,4881.755930191171,1884.254314422724,1096.6927215285136,1,High Risk (Failure)
68.74150720015557,29770.673423835782,22886.9323952705,0.9311580911106223,51416.39524427947,9802.529514984733,5677.8010142533385,34157.901046640865,16360.861355348094,170.577298138076,9.88247848264194,21.887590532944103,8521.085998540959,1012.2270384211524,534.102359785098,1,High Risk (Failure)
123.22203892229098,25261.986100662085,11529.976281978146,0.4218583923674969,49591.99089453364,7794.607477623551,10513.376488572747,12557.308583978014,62410.275053616904,148.86733007614154,10.646870125221188,23.517235274182255,4015.3404194988957,1820.3268663207743,1346.2373113802764,1,High Risk (Failure)
184.25549644667868,3750.626604341527,31227.556300530083,0.6043614749612047,32567.746788123193,20251.70846333419,9807.884488633592,48699.13221042293,55926.5949069391,156.70944530227376,8.419934245770014,23.14859315658968,6606.740940473483,1042.75322870959,1406.2710781399255,1,High Risk (Failure)
109.56910005159503,3000.710252603324,8348.095983556754,0.03798222096019521,22289.231711842094,27574.49122640872,3205.1209334969694,53762.65467248222,44143.453092430376,279.691983332709,10.40729012762534,18.886130557032562,3071.9978100450853,717.4970234113849,1269.05078670476,0,Low Risk (No Failure)
152.69031466591005,27310.05185103528,31375.547533372937,0.7936649810358012,17919.564814227233,25766.65287058603,3695.659368757385,31760.92420405688,20270.101029509227,132.01703528095948,8.809613454106792,19.323516057054707,9420.746861517342,1699.428579267862,1157.535303339901,0,Low Risk (No Failure)
136.01437965868288,21333.09281012373,5632.419812856108,0.3274763867146231,22139.482648339224,10371.212738006698,13443.575861329911,36177.156688619296,19108.839314029967,168.64984357640319,10.334476697593022,18.142936850212095,6998.971572567092,1727.4369175686227,1482.848837135467,0,Low Risk (No Failure)
146.8359109356154,12750.71713468456,20072.083804403803,0.6826418014450607,17591.632293743187,11357.372863942479,11647.075932066891,41940.582871204286,51461.52920122261,251.9773616209922,8.97251595337878,19.51487908985228,7325.063237110921,1032.5926664979575,646.0475340506331,1,High Risk (Failure)
82.4181081226324,17988.443432242086,13247.250124467222,0.7786521510749094,25051.214973040813,18684.928690847344,14883.429693472286,16159.368744906216,41576.57210171998,109.76423327083667,9.439840335950137,24.957220531308607,4206.176203869686,926.6497653835286,1228.6008912297189,1,High Risk (Failure)
173.40250483666466,1845.9493886481596,10596.73736586847,0.46803469292272704,19494.030881489547,19709.218956104374,11147.613357185704,62101.76925667725,16191.48397372758,113.81183579292305,9.062834482770496,22.58846254938517,6081.248313790578,711.5537293166462,1179.8601634192723,0,Low Risk (No Failure)
184.02125173777833,24350.057523450927,18806.19854469846,0.7758614386586519,49461.18396138995,19899.268984696493,14758.009888939758,64504.821596620015,16474.014468953494,207.40796860246405,10.764470130605321,23.24578444513908,4283.549280312931,1790.0143155725448,1047.7164869538947,1,High Risk (Failure)
166.38587591795488,20307.191967695653,26470.294403677308,0.48917996154703625,48033.41620621329,20757.611939004895,2065.315622697626,62448.13041968773,21005.311142183833,156.13220939613495,8.640969120704886,18.555748209338745,8825.666568594388,1013.8170559322591,1377.723322132937,1,High Risk (Failure)
137.86703062795246,27702.354639446185,28977.97897879904,0.5152553641125769,26519.80292369597,28684.195637771252,10718.854446877125,54379.581111734624,29324.16165908805,263.8118574777642,10.247844684782514,23.43903822347167,7975.775836219897,1787.2123240173262,529.1717634232792,1,High Risk (Failure)
122.30479023662005,3056.5695517185163,21478.25024384746,0.3718979905749412,40691.49683101678,23335.14862286518,13872.56745996654,25678.215094348903,15939.432201322157,146.58000686468677,9.546778740864536,19.589857160968528,3804.267354652584,1553.6665502599246,712.4358475171372,0,Low Risk (No Failure)
62.463182670609356,22160.673995769997,34065.78006403365,0.23977973884404746,33542.21516502237,27378.760002257008,6649.328327050207,46409.3553931418,59779.7792897619,147.04931974194295,9.775620022722483,20.01741595316747,9077.748650027901,1194.7725511666804,1118.4318876445827,0,Low Risk (No Failure)
103.56917224309903,22245.768277971565,10761.259806770122,0.03139962981274114,19728.851782759928,17051.92058089697,7806.98147274138,59897.038457904884,68575.85035061683,138.8682382675891,10.795773574105183,18.0870777379132,3805.6741307027883,1826.9137538278483,588.521483383433,1,High Risk (Failure)
85.02992682737377,5141.614829713153,26167.873693294758,0.7573055953348754,20785.5719071336,7587.831725417064,7539.343495753356,10888.728006003463,63026.28901071063,279.4255714271395,9.433528253406479,18.479257842241058,4833.013425856031,557.1027182513594,1038.866371152219,1,High Risk (Failure)
68.76186221152501,27934.13921495928,11050.998878930763,0.06487363783510725,36052.45527172841,23895.953134416868,10561.912447297971,32622.35047457624,38240.474599984664,261.0601017318744,11.06449646786345,21.27917995918124,6102.12388817384,1094.9451125730648,817.2471445578816,1,High Risk (Failure)
152.3170579868291,24788.49585766614,30795.544157469893,0.2371943511339355,40098.28831490003,13958.637716821466,2661.5270074015893,27604.606443319375,51937.623551043194,141.35652392323078,9.586635914727223,21.55259116343002,8938.795782518468,995.2533071323928,629.4125346998097,0,Low Risk (No Failure)
124.51324098132035,17654.512651548634,20728.579501242537,0.315065875260914,23081.044227473987,14946.366894480929,5447.626438459422,17370.679657727185,37786.19586885857,251.61525045625143,11.745737982370583,18.984705561413996,8735.73311483916,1789.085965079882,737.3026518905057,0,Low Risk (No Failure)
217.38862804214617,7691.303116004559,12582.280062453592,0.29766450592931426,35238.05254814883,15533.054959686111,2309.82406569557,48248.25610143481,25284.176658250777,129.80884605208385,10.988323627414266,21.77927526365329,7773.581261686888,1713.5611639768792,1439.7112806630296,1,High Risk (Failure)
212.58121725275032,29756.232834260834,15773.298289027915,0.5685821806899978,25896.511488266275,16427.574816062333,5338.052411317562,46005.0467142502,29549.61846298311,238.37123728741477,9.781074072127641,23.176766696796555,8000.113434527845,537.5513950186001,1054.7228334817778,0,Low Risk (No Failure)
210.5408271294727,11145.989132451876,16854.4732549291,0.5453449840015449,37037.36642284275,21217.244613747214,9370.73545460268,34427.909491750615,41274.53265704647,238.76823322713219,8.49798628371985,23.75509959814118,5755.66587228175,1120.4955677038747,1257.8541795241445,0,Low Risk (No Failure)
188.15019544662886,11598.093054944935,22376.635687133203,0.7308517731854666,20831.30417061433,15146.97769359039,12433.431272645234,16440.95296933884,65874.68179444814,105.28146391781061,11.345101405791263,21.505345016398863,8820.083489888759,1239.803861403977,685.0045028338548,0,Low Risk (No Failure)
217.86601492274343,11572.42639807607,23127.18530996427,0.5320346868333901,41772.06795738179,28825.10388024301,12792.586501644617,16249.231395850751,44658.50999955927,200.23574600128313,11.835765042188067,20.39016146404073,4297.530814739157,1517.6694856355764,1013.9885782411714,1,High Risk (Failure)
72.70709903823786,8307.948427678079,8922.042183735499,0.626947855241755,59129.43862031424,15500.867666582053,4346.418363951851,18246.84937592731,69601.16941306918,222.02730980619054,8.25601243656696,20.036432437900295,3445.2691370855778,1239.0899082134838,1092.8291713896665,1,High Risk (Failure)
141.88487305111693,23541.76229617363,12175.303845721286,0.2925076950290635,32401.16421025001,23735.050796482796,14918.858966912874,33355.00969454109,47456.18807180305,190.84057256176132,11.405680149014463,24.433641517561327,5586.000680678313,1262.2238085628605,944.4797813048565,0,Low Risk (No Failure)
103.8380959151955,24519.44587303001,15157.579158247207,0.888551382703368,55173.70520341582,24177.072180732262,13253.88587914247,63586.53259299272,55527.30052914777,183.6684624345221,10.44041046026894,21.890427253563352,5902.779448062836,881.4710625237392,1124.884529189627,0,Low Risk (No Failure)
168.48258440945017,4143.610808782059,11485.657216114261,0.8941075983979475,21347.291448160642,23978.031488650606,13307.105835670192,45806.376630188446,13966.185782497541,235.89753241013693,11.724912683958049,20.090047850181747,4097.582371040613,1380.2338422898101,550.8691401153469,1,High Risk (Failure)
76.40255425063592,5085.189514574979,14300.655386483071,0.3066739716880761,53735.5671463709,27717.61310491983,11267.03389726543,45249.151171867765,67263.43168309066,222.8250328891738,10.255836235953264,21.832286488991944,6620.8884029183455,1747.075723802063,521.8454646287654,1,High Risk (Failure)
69.95251618635244,6696.798141460789,14761.712706837185,0.16332240971430856,43532.176939636425,17287.80643065629,10582.114698595817,37649.619359363365,23360.176975891056,124.291544334565,11.608394721627956,21.457523192740787,8378.857746016063,1278.6899086449846,612.5184936022679,1,High Risk (Failure)
158.85555843219421,29908.62924416176,23656.458916711807,0.15806130029164933,47794.26562495726,9870.40083156712,14214.972933384313,56933.73161156653,49309.47803743286,105.11749025038988,11.594052608531053,20.87234846218206,4863.754433953235,1313.789724749242,1144.1713867417761,1,High Risk (Failure)
123.81164494350408,24421.150217326278,30216.076398475812,0.36901469934594544,26804.032892068913,7085.608555278839,12127.754046810209,20333.060563623425,39612.969414593885,103.38790038447372,8.379686730307562,22.869932970322846,4832.496466741584,720.7964524291878,1271.7529816548947,1,High Risk (Failure)
218.8023392259154,1026.2692221366165,24656.974537290323,0.7101040945928313,17110.788467151775,19547.878878164443,7663.761922821634,44350.72798250103,22506.86594250224,266.7344284215299,8.44425782085196,20.081138231859196,4129.169396412611,1738.8308384747675,899.6925282302079,0,Low Risk (No Failure)
169.20519352603546,11729.967692839346,9382.720993192583,0.42917202775906205,43359.46180796782,20336.690013802094,13827.657011305071,45527.851080657914,60565.18311808982,164.26878804553198,8.856463563706857,23.023149146512576,5669.91981758783,555.2457566500082,1418.2943101842816,0,Low Risk (No Failure)
103.51977685509696,23531.445263383113,9175.89840250657,0.5637022194181917,54521.641114761595,5813.24136464993,6140.506465703791,35528.56640210663,52773.03083666523,115.69267827869444,11.702340633162272,21.349784595708865,4358.939679523446,1526.5102251547655,644.8615451038601,0,Low Risk (No Failure)
218.04568323438195,20405.470510510673,24186.614791319334,0.3743370629601962,20996.542762485522,26628.59953594508,14275.196666050486,61815.97131528721,29647.52647594961,177.80794498518844,11.745338726032896,19.62963976236426,5774.346274965341,1862.052357449525,1147.7068447684705,1,High Risk (Failure)
90.51003530618665,23108.47519750801,21703.95153119515,0.29140226628824484,32134.54074709739,15999.009411555306,7588.104772989193,62762.9804629146,62188.71814399598,261.9814820471534,10.604385047833311,19.80728319232677,9660.865650483105,1713.1223528618937,891.0104037430094,1,High Risk (Failure)
103.7215243197135,5390.902874146466,18238.634083998302,0.8045587144686301,54225.10091712807,22562.48933047693,5742.868830133425,46108.248301993175,69180.73138542083,200.05489467852095,8.673811809248932,22.92964617522218,9210.933709222973,1001.5243271955201,905.3359991826443,1,High Risk (Failure)
175.09657957906538,15106.82922711436,8421.508931161963,0.9882471556902453,30743.312416367677,10246.941791719732,4635.955121434405,13200.822035499084,50891.02470165496,153.13863228126093,11.953549440839529,20.269066188654158,3665.097698495061,1321.1072502534284,891.0192017823301,1,High Risk (Failure)
161.09016432266694,2580.769044997868,33309.01011945485,0.8514263944150061,20575.861376862602,9737.54938315955,10583.556367071202,69009.85065216717,22675.69638969808,176.21290771767838,10.150821564317493,23.6217171723639,5975.693920017454,691.5475206818351,724.6987428531778,1,High Risk (Failure)
154.9053150463149,4406.801067418294,29943.06857878133,0.1922320045270639,51814.2702770646,17288.481106629923,11732.73981098078,19773.971691567884,19556.023638078288,265.31154240400326,10.192223664634126,22.378463164787895,3894.816472188598,1318.9951224622882,544.1067604277509,0,Low Risk (No Failure)
214.40430570664202,9808.316340527883,10862.67759915047,0.757812031892116,33221.297101596254,15404.812691870113,6507.0336507640795,26476.983870076845,25065.589423841797,283.79041201415686,8.159578622888144,20.000130157561184,7447.541132880704,1982.141542983575,1076.0068464239334,1,High Risk (Failure)
140.50180137281404,22261.650965967186,22349.873081129124,0.012137458315200522,27731.75680873067,21973.219241509396,4142.92821061283,46477.962912442425,51814.99271808272,163.58159817377748,11.84231312890033,23.744318579921288,8852.245471657821,1834.4911396930497,559.7212021553638,1,High Risk (Failure)
136.16806435185595,24940.510404092056,10838.577629736956,0.7188779803941351,37696.76219126185,28719.519362479656,3732.127560048866,64781.61456381358,12261.033216993286,127.18822209797693,10.917831210591778,19.2095244319671,4002.870645477872,1897.5066782242918,781.4176728069842,1,High Risk (Failure)
213.99156719073778,17694.29233692517,5955.702875847803,0.7106672459428351,51211.31032679247,8007.214835642788,13123.248015184487,10418.819467367624,46093.405746676486,140.00561359950936,11.051901301433437,24.383590064089518,6743.413531732836,1342.7030070357637,1268.2207620913614,1,High Risk (Failure)
191.83962430079652,17089.39598994449,6025.863497635665,0.0629764401466607,15273.178026621554,5209.887302103542,4079.580057521165,66037.45888760586,12448.117727891185,156.11144833236733,8.91629816353316,23.858570588341305,8403.27454309853,1488.6030722034757,811.2278971188117,0,Low Risk (No Failure)
137.41763501828984,11817.205896478261,9815.462458420738,0.10656288374105172,47666.509664820245,21223.733719862175,10382.844541789626,49076.28421750178,39813.72169371258,227.52974000434338,10.764305045442592,24.407981585992548,5584.564523260886,949.9000296445224,1276.7974316097152,0,Low Risk (No Failure)
84.2679807572402,23101.758993059415,6435.967967183213,0.10701067260442088,31968.742824824465,25413.327464180118,14377.429001200244,34450.118873981046,45487.56587994112,277.6824993239562,9.307689513232155,23.303822395310295,3831.757311848397,1501.5861926543107,1041.8988859865167,1,High Risk (Failure)
194.54539366446514,12352.173853039663,6042.264377669808,0.8776692678517609,49201.008858955654,7540.30379253033,11679.92303428069,20033.611421396214,24504.088029702023,164.5984397796944,9.889343649435917,24.25111434265257,6517.550659054174,1698.8035542949683,1040.7804377344758,0,Low Risk (No Failure)
132.00938230819605,28335.68159460101,13515.384450384096,0.14026816163542855,42601.65763928293,15304.861226327359,14314.022143467377,28481.244265755584,24092.426965179424,112.57502324795755,11.811335733051026,18.615105413637753,4448.736813236304,1465.848499718596,946.3553478944963,0,Low Risk (No Failure)
161.58506546450604,27980.184136858967,26916.802426923958,0.3425421656593509,53871.56507562985,23461.585202041002,2772.2574240774957,48818.95712102493,32179.20218754217,158.51257797185804,9.50425123223059,22.353319727774604,5243.923839772975,581.6488730102998,715.3100783909031,0,Low Risk (No Failure)
188.57656567064564,27316.43211404634,15469.848059057329,0.22123534791790211,52672.90126377695,15164.97904103126,12446.885979558585,48119.71039581757,54504.04170405971,166.499417665625,11.458759949924826,21.520520975679055,5138.055315273972,1235.8512588179594,1048.1098925130063,1,High Risk (Failure)
164.3138015204161,10460.394702447014,8559.671095887568,0.8578009372825907,25832.059340201988,11306.840734874011,6673.448590689489,14973.308268719336,67543.55642030282,201.34891596757754,8.858432445454659,22.232845857812265,6420.568749149763,985.1997141258009,850.2109307518656,1,High Risk (Failure)
74.17675423514865,5838.061443557623,12702.248040246479,0.45571336515682836,52076.04573554831,5750.26219435353,8274.098791417064,11418.808064210822,62922.99882447729,142.91885464632577,8.458362915885495,22.02093979367987,7249.009409811768,536.0146027375421,1130.0980389312795,1,High Risk (Failure)
156.50401921967153,15997.36050623244,32940.75101619378,0.467658124188041,17808.10441245918,5054.344594539688,10053.10706841656,45838.00848169314,27910.335390351072,179.7230158603334,11.912682921571882,20.372433249147846,6590.309237696105,988.9936053605747,781.9310928516367,0,Low Risk (No Failure)
204.38452417770796,29304.40384236503,34627.87323539842,0.6387105817628745,35008.99864464127,14235.014279155948,13130.330404167527,21580.28227423517,26806.62179093341,176.93665172491063,11.823168421646807,19.218494076165044,7673.371229609491,1876.005641321842,1454.102104237521,0,Low Risk (No Failure)
176.7213165843835,1900.9757770892331,33403.73516844862,0.9671211782547475,46612.370257076036,26550.873681424026,6136.313879726257,33042.89187030017,63344.009783369795,146.6950280978058,9.711209299495707,22.607000285044187,7285.5575170874845,559.9514288137628,938.2944846219564,1,High Risk (Failure)
143.04956654532327,4385.68918029507,28660.592876942723,0.5516795637526395,52691.980537759664,7621.9222087250255,13780.651076820799,49546.391259752556,57140.65558973961,270.04800551916225,8.263083169120614,22.522723996648317,4766.530729236267,1593.9469794804281,822.6949148337012,1,High Risk (Failure)
186.9028598394783,1377.2961893503089,12511.19152120933,0.017616507141107296,20896.282761553455,27972.864924899906,9908.56716427619,18031.233594259324,38673.30948870003,199.1393395159658,10.501883247143919,23.275736224361523,7174.958934866151,1341.2017722890037,910.7939216475304,1,High Risk (Failure)
122.75484694936642,12797.469449348633,28598.391836537055,0.04415604911173121,30890.913382997365,13276.013918012057,12285.28600018305,66270.46310267839,69409.89360021861,135.683715323792,10.106182296967905,20.587084844009368,8274.577508651382,1110.2144073073632,657.6075642911762,0,Low Risk (No Failure)
145.0070429361491,25121.77370536962,30195.787180221258,0.4633259391166933,34385.34608379453,23734.96985817284,8676.39769855922,54050.72895430089,52657.37336606403,232.0732050226842,11.628794842652184,19.830451459930078,4492.1453208562625,918.3253069567941,1328.8488036511042,0,Low Risk (No Failure)
127.5507574209085,6005.664274165962,20180.160043008127,0.4268414093689781,33980.16681084433,27530.333993858418,10528.603272497783,31142.757478355878,64758.9767760886,253.44514444005836,10.062537185282672,18.52809648548595,7960.547073488128,1678.210284400985,1132.1820220268532,0,Low Risk (No Failure)
177.89979919106912,3276.786185154686,7611.006952746628,0.895866939157868,44339.78132986075,24245.403985942336,14391.820947130926,54646.72544268379,18836.105449912713,145.82784108669588,8.936863372412294,20.69554917177995,4582.830829326208,1376.484750154937,696.7522576652706,1,High Risk (Failure)
208.1910509490851,11278.2957676342,9405.445072202783,0.8173463233827895,22174.86352290956,25040.73488657189,1595.9910292453503,10725.561688360489,55886.72473574596,244.26836580441696,10.608544544642461,20.103217433955102,8872.252924650154,1113.002173590483,771.4307809857854,1,High Risk (Failure)
146.44744508644916,3177.715728354105,33893.439781546396,0.11376172171087662,41019.299938410826,10106.177158613085,10862.567873609769,45118.675837013754,62733.64095545719,177.55102173678551,9.046741916107077,18.214370710675805,8273.377687111279,728.2641704476133,561.0577399258775,0,Low Risk (No Failure)
63.49174348407832,11335.737339640276,10236.376505104896,0.7075533559193198,58202.622409414806,8809.351585386325,14977.341211358176,45727.607449724506,13440.085613350624,125.10091921372143,8.022846212721218,23.6181394830516,3835.1050627706604,877.4302433060742,1388.6094666634103,1,High Risk (Failure)
183.11182305312752,6711.655276052919,18484.45895556284,0.33592128162390633,55234.38875950632,19750.64929022157,7004.776609170088,31605.72144527951,23897.578702029485,187.10014041974847,8.42322088290598,20.96896530423104,3622.604933584537,939.7293168332162,1113.2268556202987,0,Low Risk (No Failure)
171.2989034394891,28097.91304256523,29690.849263872933,0.6615820213755933,21793.905668124633,25507.514882065632,1665.5485449379453,41939.8666815219,22005.316652946774,172.66634856357803,11.57127556622581,23.77657017316075,6900.278550726885,1991.2501857166283,565.4791331474112,1,High Risk (Failure)
145.64962103241467,9334.673481518994,21000.14344677716,0.8081187549853212,17174.9462905046,15750.295028852433,5077.790021690163,18080.18057674891,10465.036051934587,277.2490297882913,9.653139054860603,22.872810646725704,5561.79938493855,1370.0244660401154,1408.1978890347998,1,High Risk (Failure)
184.0978961480524,3637.1280474781934,13190.863870275782,0.08963454482082778,33752.54765112004,25596.39501231145,11033.91903162655,16031.951939393328,61074.317752952156,262.7572257366128,10.873032595360506,19.57346405822017,9564.685743691542,1126.8031272760381,1024.7080788985718,1,High Risk (Failure)
165.76228067957123,23308.266218006014,29524.42805270421,0.517155970488958,17989.873431805514,9680.845990383237,7159.506222182157,64971.532528993426,38801.49354271431,121.28424475262636,8.428131200549945,19.224849562679353,3696.0122442460824,1846.9327309053097,1018.889089033459,1,High Risk (Failure)
89.64325686133179,25975.73459055119,19173.80986561843,0.10241312312679851,27428.27164829267,7351.101899416339,12299.100131700368,60246.2573693028,12063.824869188134,270.35818231427123,9.13958702851081,24.766181046035793,6959.61034233307,1456.2908747414228,1340.1516238997137,0,Low Risk (No Failure)
155.37311283812897,23966.869419534756,7597.620745380507,0.6258902155388275,53671.08653324034,11988.375612668533,5847.428627241765,37046.71237451059,17929.73104082227,182.63736676620653,9.74106763759491,23.0071702660913,3582.2945429638175,1652.5829151742983,1223.5696048475488,0,Low Risk (No Failure)
197.9404187624721,1113.6328735817046,16131.942044105943,0.2361719824828773,38141.12014272864,18934.288942950552,14799.605034231057,69232.06929610083,45530.49936054475,284.80564582157893,10.746631778731668,22.8245689204874,3577.0749541274104,1000.2957269313665,1485.8952202966416,1,High Risk (Failure)
211.13827511584373,2844.441654956124,5531.133352197116,0.9066688146151902,54142.08039991641,7980.2227853489185,7562.11988517726,25352.11843455855,45033.77228837909,253.34330476255303,11.300164200930713,23.40125690325377,5612.672824142519,1495.5753517080943,1264.005145839475,1,High Risk (Failure)
73.06079712489434,19783.881578197746,15685.356029852632,0.24241591254486383,49181.133750678266,21838.281497478903,2063.7449535569203,18532.296649417996,39794.95154651727,101.0948439967416,10.779324437568748,24.316685985103923,6555.725782779694,1317.033240091005,1204.7930079820119,1,High Risk (Failure)
60.150946442820974,28567.74146754382,25859.88219357701,0.09000794044593863,37609.88066586248,11086.62956961204,6087.216766521812,68082.25135030155,41134.47453667064,219.99328368525374,10.009257821521455,24.86817437679033,5410.2003637886755,1163.7491669818974,1084.2654412897157,0,Low Risk (No Failure)
161.02005216772017,17715.760992155367,25981.365971996634,0.92395490982493,42621.28805289452,24580.278884476287,7798.917903087608,32808.16736961993,57467.30622023857,279.2679930431019,11.038500555452309,18.211748138258496,6729.134980176353,1709.361366071711,1236.9023497075814,0,Low Risk (No Failure)
184.48740903731186,29758.518532118665,23290.863654349523,0.521541449193514,22132.019543202536,10688.785689157261,13237.391470699005,49795.51088173779,58443.29040683885,268.49719979648654,9.835587609531988,21.814316678974265,7139.185094546113,1175.0690290431035,1422.4522159175858,0,Low Risk (No Failure)
197.39169939913182,6523.252913871332,19782.46688388013,0.7983961490029909,34238.496955211405,18507.831692690797,14351.788758166675,24178.096618921925,51494.0349481227,124.27685508117378,10.540468091321067,20.788683298127683,9716.581741918373,795.8249134410734,794.9039760148894,0,Low Risk (No Failure)
177.5881355831831,20469.672258007075,19450.46967365576,0.2418696361137903,26955.139013539872,10415.325036654598,4273.0054509937,17369.214884457942,17098.684762962377,189.6988885661446,10.472803284702316,23.651565127963597,9555.64571192244,1657.8800399075021,1005.9474709816631,0,Low Risk (No Failure)
179.783237460192,17826.62743377511,19122.806650031067,0.1241601865478108,27509.88453089721,10932.475902339633,2856.3279661966853,45624.75210679501,69175.28501306471,246.8671756144841,10.935314192917978,20.522248683625,7414.676263189854,1631.1926638589398,948.8892160223163,1,High Risk (Failure)
164.83871690224348,24265.937217276856,5544.738968212365,0.5067117639327983,52462.156652526486,9224.231387995489,10089.074869582942,34887.212939570876,19407.710602376865,208.96664199096716,11.56323636639795,23.93660932183532,6381.005413135894,1859.3965248499903,534.7827470655747,1,High Risk (Failure)
116.1310574936025,3432.3384180083503,10265.343573964885,0.9539059994272854,32031.229416614402,14560.877124512763,10059.826446966308,52850.424704583704,43340.96107049153,249.0171861305498,11.368106240700918,24.32521879950614,5923.702206910199,1462.7585013583232,937.752476286963,0,Low Risk (No Failure)
136.79021355473975,3823.925144132122,11134.001605927264,0.580231287059956,47064.34749946268,18465.7911883076,7291.768410150251,53063.903277091966,56738.2491410104,221.51157648849886,8.65833837083588,19.74987516141882,3271.0319243587674,770.6658768096347,1400.5948141951762,1,High Risk (Failure)
171.54172894268947,28747.625447135455,34716.95638270205,0.46875106043441406,26041.292519389615,20161.94618454719,2515.562950318462,52242.459246319246,66736.56102869732,143.81552796026224,8.87745671932321,18.746662844414953,6664.593032640271,1478.293022287403,933.3482361881831,0,Low Risk (No Failure)
194.09844634369765,15042.181041081609,17438.601871894338,0.8575057399572561,19071.883133229872,9839.961943871682,13466.044569119158,39341.28072102372,60153.69986679808,234.17913246404254,9.11253476026754,22.109154627762575,9958.007901522884,1300.2482190151586,1420.4588986899616,1,High Risk (Failure)
85.8674297979139,25782.491256946585,14709.883431074008,0.7069969636304182,28079.79546067186,9231.488105101143,12142.466065263881,34813.003932722786,40987.174803260656,217.07427355392667,10.963575213344935,21.10561901447012,8738.721385327233,1076.6582596169271,840.5861430439675,1,High Risk (Failure)
209.312814041489,14664.004221966114,11793.940750321846,0.25936582116749485,55128.09574760072,29103.12330050209,11793.1185247855,48371.55299307709,67282.86205931779,272.12554118759346,10.189716546603442,23.87712157373889,3284.2831086237684,1297.2074358602508,1046.991243860375,0,Low Risk (No Failure)
141.87319153835213,3191.0803191203177,32727.131024423987,0.7076543831181201,56835.890360886784,14664.111792319885,1296.912708839814,32912.61967681003,50134.35992123664,207.64668420298818,10.109986285803036,18.97882282402308,6215.407595813433,1806.5278688350431,1016.6067284901026,0,Low Risk (No Failure)
96.23932403167007,1998.507948626122,12272.564416616326,0.3051583305372897,21731.536631101284,15143.242324716712,5963.994661632422,29596.760815707654,39060.63089660673,272.03708868710385,8.832501201257543,24.460810271376168,7340.79368339361,1190.2928965777396,738.662747741028,1,High Risk (Failure)
168.40505822138954,21149.8011662799,31800.249254828246,0.663713252520194,15170.018334156468,19662.597036810632,4464.4419340495715,48634.91251448777,22936.55252420227,130.5425570686262,9.445676586070064,18.188066213428684,6643.894697834052,531.3722496493516,1041.5527958325613,0,Low Risk (No Failure)
105.5266217083094,28837.583999620638,27932.00334167918,0.32599791853560267,38908.96966001829,10303.264396658451,13740.921837490967,18362.691171492334,41362.10225436193,116.2960113796,8.045983036608853,23.43658925313202,4970.5765478982485,848.84807634711,838.3349011477931,0,Low Risk (No Failure)
69.1243062405791,17907.540775879956,5714.1812977502905,0.9503842943791175,39518.48657036859,6492.074961489481,1377.578296207384,58115.12084307663,68796.31277714806,125.34607052975097,8.193530636755863,23.020615388099603,4328.031089670834,1173.50241575359,826.9522079852927,0,Low Risk (No Failure)
219.27000259060958,16426.05634903095,32817.94610620959,0.22539389431682977,46908.900664073226,29106.22102590573,14426.09814961485,54720.3347465838,52065.748566294336,206.37214448861562,10.028827736440455,21.5081052551965,8196.066064598288,814.5268682442291,624.4865207738403,1,High Risk (Failure)
94.99449807966838,5533.611713392319,30581.89895835643,0.6477557612860042,15982.43443585904,12188.989127267472,9596.877496950628,20699.30477543486,56319.5917444008,100.8056539404387,11.858408528071703,23.875906447418956,8084.439790516952,1005.5475682521148,711.6334648014731,0,Low Risk (No Failure)
113.11544075773527,15883.379299006743,25838.22834880185,0.5771348348692575,49609.36916633867,9036.477371443863,12990.687713807933,31008.743612793118,16477.490575323343,205.47959298303317,11.852496777682356,23.10306351096902,8493.466005292365,1936.3088440379897,1260.9068569537822,0,Low Risk (No Failure)
150.58891059601135,2390.7742406726416,18783.162398551358,0.9095515907751013,46605.8157389298,16400.946620361363,5535.895006518478,47281.62016648946,27375.411065424018,158.0227377371277,11.735269040876364,23.57773925270295,4530.993572382089,1917.0078722536557,1237.226226087412,0,Low Risk (No Failure)
206.94360673304928,22283.690738343314,20339.736309833796,0.12594241635252268,22280.48632606336,22932.59344262611,9804.429732374256,39626.435234119344,30320.470857958902,275.0864814295396,10.861352917495886,24.2701662666178,3387.551870703831,1123.1019111495007,1335.6617644905698,0,Low Risk (No Failure)
94.86262074027904,22637.798368920627,17444.920156668617,0.638048201147011,58450.16482433962,29495.875565822527,6701.6366147232675,58226.126997844294,51735.54825255187,100.17164476555205,10.259620722033873,18.428738573248424,9503.034617611269,1019.0483648175564,1434.434494621894,0,Low Risk (No Failure)
175.22519374895043,25150.593059675542,26644.31248202051,0.35135901433178085,41386.31270366904,21962.429936799053,11454.291676379433,51230.37133732283,67680.05357965705,158.33873218403176,11.15841422811987,24.42658516816285,9108.99755241592,1105.1011439708655,888.0109205294223,0,Low Risk (No Failure)
129.53535373739388,13889.91936135594,29703.59161277962,0.7511537036455784,49320.05173744389,13654.52313524255,9939.348500659034,39432.54300788035,48314.33383024375,160.37900448657277,10.657721984900611,20.983212094384665,7947.850519251822,708.7783753832509,1185.7531406138728,1,High Risk (Failure)
102.72452322710741,23711.64084180918,5606.525604433923,0.4787016818903501,42157.74765523289,12033.39352016037,11328.163084887845,34813.093554093284,28410.43617869593,140.28999126625578,10.027523333035278,22.437836037051188,7108.618892723808,1580.6163292336905,601.9603384152086,1,High Risk (Failure)
104.38098927698123,17479.78987179428,12064.142510326314,0.552709570166698,18082.63333959589,27004.304516018914,7161.16988049332,14385.225438502403,17786.846037965453,289.42603204233967,9.3618634346021,21.741624661237783,7476.657118354178,1933.599415872753,649.9298509392427,1,High Risk (Failure)
111.76486599767864,10364.130988759129,6816.567687237818,0.05097206881888994,41675.0862289537,10208.559108576195,4032.339549804914,23434.506471326713,43339.991330712015,273.11426629311586,8.85577914869663,24.01323370535706,3094.391506188154,1291.6046749100283,1457.0779908611285,0,Low Risk (No Failure)
213.22106340361407,20125.211685612943,30821.856781642542,0.1290736653068295,57083.596370590654,7193.382468825783,2429.3441639399616,59875.815984544824,47223.44484213736,273.2739350528152,9.038498630618623,24.301549185391867,7721.36646118657,1439.7495342734933,1168.4523122055884,0,Low Risk (No Failure)
85.01071531341773,4321.453181464099,5469.419538261979,0.6183403172799412,20094.66044744529,22206.25412680856,13305.506090107196,27703.90961299021,27396.088763162057,278.95517119806044,11.244993502293385,23.42017772266306,7725.529445817607,1205.721248091987,1359.6554055065299,0,Low Risk (No Failure)
186.26739817717413,19143.84747530214,34777.69627801534,0.19519381427592553,15457.875116517038,26322.823006619627,2342.009298937389,13934.239621238372,29347.12924750628,182.3984849608677,9.799409479277136,22.41370706759122,6359.055911130184,1532.8684927298484,907.0996598985892,1,High Risk (Failure)
118.84530123508051,18882.037366792978,21605.9265607155,0.44151869651086506,42610.16871651812,15352.398318565845,1123.3261035092282,59696.58365071976,36536.40954457691,114.32401313203873,10.642253007942655,22.81458443001761,6173.740449964497,830.29660570966,778.5098391299147,1,High Risk (Failure)
83.363363087514,3277.288392305612,20121.140228862718,0.008052621625281198,51684.98343954532,13152.492514742433,10336.653632126432,29579.56389957002,24598.294846958015,137.35800950972276,10.998419816205066,23.46428607738135,7286.475853236743,757.2574464782386,842.7589066657943,0,Low Risk (No Failure)
102.96994679258282,5546.125480379545,8875.517534262484,0.4607422172611716,56727.21500399933,22753.944531680772,6713.567328864255,13562.53851586568,37407.11220346569,224.66894896652997,10.764610375261077,21.890850067715245,7436.4877156883795,1336.503581865056,1495.778236919221,0,Low Risk (No Failure)
199.0247975165949,13479.952036983103,5749.127013023935,0.021641794608235676,19687.682699791723,28347.312894440027,11402.13172427681,14900.923975575604,36673.80913933261,202.00776400537055,11.445119240272676,24.42934062893736,9455.433858304612,1859.959877591866,1467.7194740192529,1,High Risk (Failure)
165.07671755545726,8849.563572993391,18787.610176383318,0.8590776944503427,47264.948613740344,19875.77133353783,2103.3942291743333,17769.750415765157,17961.45330739932,137.08854487764722,9.864542478788778,20.275642090173825,3719.2894043101883,1463.9907608974747,1239.7187996647249,0,Low Risk (No Failure)
66.99825156943157,11823.013704048679,9579.58940001821,0.9666726667052931,35969.180191716805,23189.141039274244,4345.492087574798,10081.715346310384,14751.908610280443,119.36923450211026,11.485460178228728,22.901510755818418,4039.805755121629,1977.492157854382,1425.023106061072,1,High Risk (Failure)
103.3191477029686,7864.893799761155,23665.007725208234,0.035087611216299996,40351.33714024427,17140.87270328085,5790.010981654322,19016.773877759086,39742.281146948066,224.97310012740752,8.633583577568526,19.99621987016085,5746.087835819643,772.3426446761289,873.9854257309839,1,High Risk (Failure)
204.00369974368178,28700.07965386584,30457.629710926343,0.6274456098169422,32148.634678903756,22172.20779590005,7452.688364764139,53674.438199238924,48741.76477409331,272.0531538253593,11.221305035134431,23.20974705809052,4190.524772083947,1551.533975142377,718.3015348895028,1,High Risk (Failure)
217.70407265769612,20615.552698390176,28867.455096268488,0.5039290077242442,26694.583190241312,18463.636053503273,12318.270882227665,23675.48351131893,65576.48940058079,170.74553231712008,8.096220609550208,21.309980366519802,8572.909890359402,870.8353761615311,1329.9885272070364,1,High Risk (Failure)
138.0113909877415,7038.722449638219,34377.44836105956,0.7151647345384377,50990.37861570478,22080.72627795406,13781.051322164043,32752.51368422555,30143.631967650017,202.9810589005501,8.190410673046504,22.852714942835043,9155.87495769445,937.8260292815228,770.4908019740491,1,High Risk (Failure)
102.47942518865158,17628.647151033412,8874.09212199003,0.7433154936552713,24210.102641727637,25729.33704997897,2298.5530972104143,32995.266017953836,67086.53348467016,207.609026624864,8.79999948340848,24.88560636653895,4361.474651721655,963.1413716138215,1161.3406304745915,0,Low Risk (No Failure)
141.1948374017338,29610.515232600468,11262.376471958876,0.9877733321371224,24704.842191783624,12274.737876310504,6252.098541612083,12324.18932131975,25367.835946567327,261.8279880632939,8.413586781528062,18.502082491212363,9237.792436059768,1687.1480663267776,1284.8257095685199,1,High Risk (Failure)
117.15077343888717,13721.006059160862,10723.767964275161,0.06583774216430249,41705.75501033263,21065.5688737004,5533.854562685275,44684.3672783491,56913.72987438077,107.02966783459213,8.117119306720577,21.42143426172553,4505.67715671517,1693.0913778619504,657.9069942831361,0,Low Risk (No Failure)
215.15578124767632,25399.346367850758,8816.123580133426,0.8182372870192298,47656.39626524134,14887.188154673055,10197.75074292658,41271.467640240415,17244.91205687203,176.2951583931293,10.004499518145455,23.69120075152589,4809.6188516909815,628.186639020665,640.4230086042012,0,Low Risk (No Failure)
192.8996416690866,4029.9894639272047,17733.016665727373,0.5811085216985054,16379.27658182546,16004.273945874327,9298.15769613514,46474.54697855055,20392.373742864125,111.22930441102847,11.391824736505466,20.34030617648695,8879.98133641939,618.2215760961134,756.4191581887759,0,Low Risk (No Failure)
117.39448406672216,22129.83954699053,17120.603085884406,0.8384826905658241,33102.3580810604,21122.385257540278,11655.518184564706,57859.11053046463,38395.64050618945,168.7615929945229,11.155859393918561,21.41989562108977,6289.923802714014,784.2780107508298,549.7845828410796,1,High Risk (Failure)
135.35364038955737,29480.243980433293,10578.896721743953,0.8890360441332016,50922.83744918209,12286.202085798826,9449.998931915403,59651.94927637452,29402.417443040402,273.01594223470204,9.39569141813625,21.904649618933153,6608.037395848656,1035.9292979786,1382.4024575923509,0,Low Risk (No Failure)
188.15691206453837,17426.86686751217,12869.475504966038,0.8862613845298132,25534.406356079977,14348.375654284735,1644.1287696161767,18926.78413133839,54853.5592721515,121.22665718147157,11.546237899061873,19.338342690872757,7149.85887299335,639.2980196522274,687.148972839673,0,Low Risk (No Failure)
69.98305097572435,9350.088728703351,22779.7594365634,0.4107817429094348,31513.936802840253,24945.980869467687,3650.699070828591,26578.97710602117,34936.770196052006,284.728846254809,10.768872903029038,20.925021232048497,3695.0587882671343,811.9233566165133,511.0927765696278,0,Low Risk (No Failure)
108.52574253588527,2214.5314213244897,23736.759077521834,0.9061375875672343,41409.59063085415,6120.667853837465,1489.7378927931431,60300.608253733066,37724.900063897396,240.6973282927576,9.750214569147518,21.402550561123803,4120.211931599457,1604.1340632992144,694.5678128360129,0,Low Risk (No Failure)
126.2625709145066,26416.207364530288,13150.838485077778,0.0770266963712315,50961.497503724866,10179.423187160259,10680.221983814361,38552.301787351935,58982.03225902986,106.95352062624896,10.84917434603311,22.100002057938116,6134.158623061512,1966.9194272401521,1066.0500056724632,0,Low Risk (No Failure)
169.21875539574438,22189.691334323317,27951.90294096692,0.5590108925968418,33422.40765674021,23522.86153092952,14077.952133164023,55937.96889394695,25191.74070734743,130.05879511940134,11.794413572456925,18.26531418997166,7411.715622683991,1103.0010941346432,1404.2003011880533,1,High Risk (Failure)
77.05572050140348,28850.636464041778,31360.927514782277,0.8924261775360394,21348.55146837185,9798.045202270385,4252.503312614028,54925.27710857118,31227.859802076917,223.85182938729122,9.543539286973976,18.416909930933613,3832.725975522628,1884.4546472649906,641.2442042024702,1,High Risk (Failure)
170.14438342843778,17438.894565528746,6133.489041937854,0.9800004155993314,52134.67477070579,12406.311246316738,3375.720318920335,48275.04417468789,34335.563812500004,203.14198770542563,11.09939128474651,24.26948532553788,7019.705499003379,509.6889581767993,1110.621151066682,1,High Risk (Failure)
140.84037959165715,28786.005474330388,9765.580758318672,0.8447903602895617,57497.89627545637,6450.7640470905135,1108.5598944242895,18210.06467695574,69113.54006352436,157.67539479568734,9.603094461478364,19.967185532225976,9641.661082276634,1127.8846507494409,700.3087555269833,1,High Risk (Failure)
69.24488975941867,3590.857166464138,7278.8086089475055,0.26244806696384015,27875.440852070424,8519.394405357118,6882.098779880088,62164.706721707385,22008.098477855376,195.0458698425417,9.211949621375755,20.70038064659382,3068.1098163706833,662.4910659718903,556.1712951254024,1,High Risk (Failure)
98.63943764109885,15781.97197650339,10523.900692435545,0.3458900755820232,29371.724989721777,10864.253996756866,14110.314482610258,25893.096554959116,41001.50299384362,267.9035439347698,9.469290233135455,23.961319667805828,7787.716597776132,1751.7998941760786,1284.359864639087,0,Low Risk (No Failure)
109.6493571367276,23362.94539695384,23905.567071637175,0.9320458362386227,59664.21314574649,22511.45691074425,13481.600234935244,69615.3998335911,64535.73128488825,213.37210666162554,11.718149547051642,24.278606249823838,3650.4993237137182,1048.1816292246124,1256.255748794213,0,Low Risk (No Failure)
104.3004237035526,8052.219427662552,31228.896806665227,0.7026394640066841,59025.31047584625,8156.897194378136,5472.032169094876,24819.26895591202,53432.00972731605,216.19278360251263,11.677205226146484,19.798860961364166,5879.785864016143,1348.9700500627716,870.9205795912942,1,High Risk (Failure)
90.72257355840588,14960.098640704398,30854.84392473808,0.7960371548635623,25968.149791251446,6690.871905031155,6057.190257182164,59901.301232492326,68480.09844445766,287.13475906269053,11.940725033588164,18.452375163995413,6083.322464873398,1578.7331938929092,595.1430431228723,0,Low Risk (No Failure)
219.31751232821168,8883.961075051557,31835.637306498047,0.8244750462445021,51396.04977609546,8432.563541971522,10716.157911824706,21244.81608643202,47563.48853798336,120.18318887377862,8.661098622472943,22.842188307390554,5974.147497528025,1458.3154474948547,1069.3250763625429,0,Low Risk (No Failure)
94.92062205841026,16999.658788579043,8939.697492929523,0.778468339915185,17749.818531101988,22370.927865757825,11001.720341953056,39900.758031481804,16380.91993898993,245.82175368256952,8.299378157364792,22.07997901094114,9421.343720474655,973.8958533788032,818.3336934224487,1,High Risk (Failure)
211.64475167507678,25591.17910606512,15935.028936463774,0.15763423171681779,53603.51936166035,17389.59389980915,9567.008266813196,26290.17071781284,29587.62430597494,119.2146810512433,9.52306815174732,18.233158876155425,9363.595825463006,750.9024167345976,701.1677841017116,0,Low Risk (No Failure)
127.13600998844639,13747.32531141406,19740.472708063557,0.9762312567009744,41799.7176182634,6521.4787951195185,3183.4962690561388,51962.75140886253,33164.0610016225,193.0924468161009,8.166023359503676,24.276384347145527,5831.336728424123,1537.721884951701,600.8882974158004,1,High Risk (Failure)
152.81379325404978,21369.56291133736,31298.158351117952,0.8839018149601086,21779.45198972852,6438.249969302002,11726.62756834765,53824.71430826788,39774.0398152603,106.29861069520923,9.945280277028056,24.866924658360713,5284.477863708615,1766.6454207418676,732.5860660526138,1,High Risk (Failure)
184.73351577068053,6747.695206228376,26940.352855558147,0.47193792855645866,36519.9951697403,14966.477301690222,9630.295060104534,33671.41741610647,41251.947820126115,244.73238564393637,10.015244098335177,19.13498436826916,7465.796684440968,781.3440020326645,803.0927777301217,1,High Risk (Failure)
178.06159757353697,14078.608576801968,17780.02431507228,0.8445563757121602,39292.9585144216,21880.4911884908,12812.010708827554,23965.02237300998,64465.87909823009,264.284335644766,8.3036225996344,19.663225464917836,6146.769190414878,672.0617103221723,1225.6979206215553,0,Low Risk (No Failure)
155.50571048746497,21839.508480015673,20592.274593118018,0.14184982191924211,36289.53876705408,24121.42622762603,11870.188779579752,23374.387856922393,40137.498873521734,205.4254319458684,9.158671627204287,21.040674170708787,3844.29362107479,1351.0684965618066,973.4351531961826,0,Low Risk (No Failure)
182.9730129461123,21955.74002019904,14779.371313064365,0.09926014930919491,48693.473324901744,23388.83305708262,7953.159251078499,26081.454269199196,54302.39627518149,250.97206045993374,11.818541534662753,24.696263192162107,4215.9796131522835,821.7083348481365,547.8441905303571,0,Low Risk (No Failure)
173.63884777972984,23465.51517827215,25105.564022336228,0.5964561063072833,22162.208897500186,16367.814027077695,4907.467137553772,38168.77069465781,30871.153356533167,164.76099087735574,9.507846222387794,19.24729638643436,8675.465128051457,1648.0282226900013,621.6048342598908,1,High Risk (Failure)
165.8192977712663,22444.76496263929,26779.063379850417,0.43907061474193954,15122.793503085708,9322.353622366678,7530.050850021383,15327.958108599745,63270.52924373585,192.21143909620915,9.648352834564173,22.604270936174238,4151.859519294494,1408.6406431357043,770.1548882638084,1,High Risk (Failure)
204.0029826956968,1205.6625704567587,32873.49058073977,0.6791277374008733,23242.45445222492,27585.046378143332,2117.8575460130987,13652.774463583102,14501.000957327202,120.44647148263807,9.697442501332246,21.774495850435095,4947.660257844273,1341.5949575826135,1455.1223034663017,1,High Risk (Failure)
187.60224724743773,25031.347162474223,7648.345789052283,0.6697987277746154,24594.192724242705,5538.315007464951,1311.3592413134024,11543.014144219518,30393.519851474946,169.08035706167783,9.141929870954822,21.886703366445897,9953.687921359025,901.2271686672487,1273.4305088642886,0,Low Risk (No Failure)
140.7672957287245,14144.59140324993,5183.8594194104235,0.8514350378574748,17634.363987753506,25643.66205668345,8359.970828162177,16328.035708339148,31028.24803845849,247.26644780400983,8.053394689382998,18.247688903766303,8838.963278541796,936.6854708417947,854.1602036156978,1,High Risk (Failure)
168.16420608840758,17549.272790442883,25233.232141006054,0.9012087358416124,21396.586670543256,23247.16661306867,6763.626743196382,50720.21200674618,40209.58513437904,171.54394390752398,8.38281754464286,24.16299762711826,8597.797114949275,1014.7474723761674,929.1659231175986,0,Low Risk (No Failure)
206.11848840903542,23621.39452416126,7658.989242487423,0.752310970673456,59880.50471775742,21208.408003813092,13656.50035634233,42971.94743135347,50835.690677235994,126.38199854474206,8.943032948096166,21.324768301264292,4830.063985134657,616.1812166045548,1099.4664890668178,1,High Risk (Failure)
100.5235813636344,10931.781356402822,10036.7807541504,0.15537035593683213,37999.059052038836,12156.754618489704,6628.57146479294,65291.87627124504,33623.53511415397,166.74377151397346,8.479273375607344,23.441265781444898,6792.299137620814,1613.5091013152048,528.3738607817318,0,Low Risk (No Failure)
79.52611757516462,23104.149691111135,32658.668903982507,0.534659566749085,24081.88236889933,28993.405610559683,7508.1851883891795,59246.033268387895,40123.82378024468,265.045431593066,10.724440855690995,19.814123892800243,4530.429514439964,1696.050429485563,859.3892605470342,1,High Risk (Failure)
211.3553423752959,11962.90080476266,20122.24840520265,0.9959066403863422,27216.79560686006,7476.008296053808,4209.568221721611,47733.05488202317,27352.138118564486,240.0634887231221,8.768304376386485,20.01620086017859,7747.6539556307325,1120.0229625547254,667.8273401068222,0,Low Risk (No Failure)
124.43259535912964,13450.360205421663,7826.671362425222,0.8289590172106733,30636.13386739297,6494.983548152471,1758.837289061495,35956.923473174684,47264.16232315513,151.30743228620844,9.06463995397908,24.208499881190846,7259.791232159582,847.0203601755952,608.5644558446489,0,Low Risk (No Failure)
151.6171572611236,8190.041044368409,5243.028249419674,0.9906955658991805,41364.70102453164,29131.445778880297,1568.5328642404702,23800.740400909875,54180.17359279866,267.75091559799023,11.941306143821059,23.697856968773124,7707.3598002456165,556.7535938562262,1332.0609672265723,0,Low Risk (No Failure)
99.51660785151998,6416.403318702751,7400.977092978099,0.678542029790759,15293.234206134388,5657.246222018073,1111.4479515182798,26297.007944680125,63784.79420675736,162.5108834406709,11.790815617691228,19.128381963304406,9564.230605275317,1583.8523180463485,1477.8195986926448,1,High Risk (Failure)
216.98978848438776,19149.394654488897,26540.186303229435,0.6533399244188108,40856.83123669483,9648.359862056677,14758.221468011052,32695.000225919062,16946.262087674862,199.18066661919437,8.75871979783864,20.164302280110444,6146.6119644068785,1860.586970246742,786.3284005651899,1,High Risk (Failure)
137.00447219507794,13433.029110792962,22471.116894750456,0.02629444066838671,33496.22003411902,29764.121872292373,10977.967049753872,47842.82020726678,12857.93252070107,276.21920952162526,9.73567366075002,21.51630147074792,8667.469263831841,1756.729177224945,1088.9786719943286,0,Low Risk (No Failure)
87.9810299481535,11972.079868796762,6177.307281216392,0.004197160830565205,25107.761240619086,10086.326263230692,2321.0387156489523,40072.74693824237,24586.716225491375,108.27017854044236,11.303470374802416,18.966429937783523,5916.575197455148,1534.234721527241,1068.3479326356473,1,High Risk (Failure)
143.43184386670083,16630.445359053498,31563.162930869174,0.22769871342582593,32783.60599406497,7638.7284178237605,11247.7425298305,30293.996993963276,16537.58559493855,171.87641782051958,9.737912647597353,21.323509111781796,8135.534390749523,1220.530234106881,673.5280351634071,0,Low Risk (No Failure)
100.35856322773785,10483.196286386961,8600.082488506641,0.9939119882317821,55323.715228466644,13923.78923785216,2279.170351892104,40911.226467480556,28460.310887436433,115.89743347389216,9.174613078982158,23.592088724316838,5155.120968572461,1151.1945857936075,530.1136848594119,1,High Risk (Failure)
82.85604596813417,11178.29309385665,26634.075607971306,0.8500840213306362,46521.41555946933,13762.157097451915,1612.711151614722,51247.04197600041,66079.98023986944,124.64717858225225,8.839405513574466,21.21206979449955,9904.323561663325,947.2780206456931,558.5417734540547,1,High Risk (Failure)
213.62169670487157,10141.285383941296,6584.739334524102,0.226338278437486,45834.48358523111,10915.23356477432,6197.998573718698,30815.60532979217,12165.401135604321,259.2216084187437,11.04139678522597,23.928476800808195,5776.58356108722,1949.6880050725213,1292.7396840642914,1,High Risk (Failure)
65.64981679043825,19657.722027023054,17523.682132812246,0.3558303786676609,35058.68803806325,15773.286081750522,14086.657506852285,59590.67105247094,39318.314089219595,147.0453906040051,9.523869438033326,19.615342111769724,6650.648241700617,1790.6155406614412,1123.8107643167532,1,High Risk (Failure)
204.28191874166777,14975.104846189344,21848.48479374365,0.4353976302115996,56320.26250634731,18110.632793550634,4931.043184959228,40643.879892649216,67349.88716332772,288.58538407011446,8.494735521125662,23.190799745500627,5931.32026889281,624.9328475722896,1208.3388155935584,1,High Risk (Failure)
116.26397957470486,4149.614668048285,33305.10606899717,0.24720570371064943,51925.18789446911,15008.367049398423,5203.837821777863,39302.42096298239,49407.75401727353,280.5194890291964,10.891294372790814,20.171688552459777,5543.513579527529,914.9993977769827,1426.9344608369079,0,Low Risk (No Failure)
160.4270203454094,26027.834598258258,19049.729221056652,0.27331931995714165,29940.360509273498,11541.181301590219,2897.467936395815,22229.348827797912,24108.61059391887,171.63982410869465,10.606821514109166,24.66842016370653,9749.175858984101,716.3665558826659,603.3603509757605,0,Low Risk (No Failure)
148.03624674500188,15580.719813553736,33351.516601838106,0.054621536489038225,51804.94839579372,24233.26472061587,13277.280635234956,55246.46173061093,12760.681457884877,271.2444813382898,10.249591228954609,21.350661049541674,6528.034716678649,1441.7823830418693,704.1168992466266,1,High Risk (Failure)
115.20269438793058,23332.581906368374,23404.783155559388,0.5392982638342613,36142.97191079313,9214.128265336114,8339.690224380036,10038.932174633459,49258.84422108006,232.12449262431952,9.497175043906665,20.28513844623282,4756.383082454732,1813.4823747133262,1207.6669639384413,0,Low Risk (No Failure)
172.82226329129014,8327.227062967188,22433.67199787167,0.8104099327350301,17935.820437896742,10444.96402259366,3330.8515994015415,57946.99710073363,49016.34620282659,189.0270397885871,11.935075465255219,23.019030524720318,3210.011677133442,1492.3788460665103,902.655153033048,0,Low Risk (No Failure)
168.21777085963586,28891.111872018595,26877.065284050823,0.5958660535285966,43555.50597052474,28464.80158454828,6843.169947411534,11329.15796493398,69396.63546102156,128.48228395581395,10.580598226992915,21.015959597237977,8153.752391504167,571.3231561047573,715.1897459015828,0,Low Risk (No Failure)
140.94906469112937,9820.502380078487,29814.505865116313,0.463244145483808,55554.740891735564,5977.560883556083,2960.9591026096623,53739.29770873223,39314.05475356705,207.51108452644092,8.0365423717057,22.389034542166172,8793.909092327394,508.20931356618235,1204.8293943046253,0,Low Risk (No Failure)
70.7322363821484,5712.820893626233,20029.07905576605,0.17686321209391564,26685.395501502717,11231.946659159552,7818.6842735622,30468.72080853952,16249.518065164113,252.8669625706892,8.05803859018015,24.749243164463795,3091.4370317290027,1700.159601124817,926.5149588117349,1,High Risk (Failure)
149.38278343206804,17794.764317016423,15663.483907414355,0.9928587751846297,19237.37139837734,28538.512501364796,9165.159123681995,37285.50946500499,24164.00336338433,292.5886382605358,9.755936522461225,23.67023384618351,5325.312556886058,634.1361385855258,1106.2166253149007,1,High Risk (Failure)
138.7720768001891,3271.8083150981934,34765.15143345228,0.5149878547278329,46973.812769248296,25486.668787360544,10550.499364928766,43562.930440871205,56969.357770871,113.21475810223099,9.761264300440265,21.438895575183,8146.116489279513,716.1497626453493,995.8114783879502,1,High Risk (Failure)
69.12875538420069,11022.984898122895,33157.6657453189,0.7034851104965666,50049.314171518316,11301.48379673894,2661.182187039065,69950.72478012643,46197.58167630692,242.99157120842378,11.252273210107953,21.294146853527185,5715.487238758098,727.7749428528281,1360.4782496055125,1,High Risk (Failure)
133.84919590716638,28020.211317860914,8332.916265379716,0.42730604323448995,34635.80957834351,21634.6655946258,10097.368437470386,63513.009430917606,47981.80121973945,226.3037203148797,11.925875946722275,18.084212111501262,3375.7917389504883,600.4228690284356,1187.8020232766744,1,High Risk (Failure)
106.02123664698851,13996.954563618236,24119.144792849733,0.9907621555393796,38699.69217501371,21737.892690050303,13824.441493994766,32481.28124361368,44533.84249383552,281.31796821367766,9.433514918679185,20.40288550014896,3446.979805003424,1308.6010953179718,945.8738902715982,0,Low Risk (No Failure)
131.58597869175276,2653.069239006086,33783.18787223495,0.026057885985593,32604.817426863945,29552.047526885948,13580.456885582682,58455.98580382079,29662.673171933755,133.1906389576209,9.30772245026924,24.10846709208925,6779.608702344405,1959.5666632756866,1499.8313187333345,1,High Risk (Failure)
167.84318704940682,21111.785274343292,9828.110336072554,0.5785117924094454,34310.54930018497,12998.721558789684,5434.178611888553,59912.11688942969,53185.19365539141,293.04465203611704,8.063690066055452,24.554622912475637,5383.923073129641,1893.556244193248,796.5348536760905,0,Low Risk (No Failure)
139.43378437684797,14650.472472162184,10256.728770983456,0.28131047047074254,32643.06238735676,5720.385026340142,12499.036741048822,47150.272599838616,56499.55248633752,212.0138904173097,9.852835818890734,24.17031888242169,8561.369123353546,1731.5244380485492,588.9562806460652,1,High Risk (Failure)
62.89984656731676,1637.6091391403847,26506.52526791832,0.9394336228961874,23128.644792638963,9968.811929214457,11317.399843375782,12385.214394042436,16514.433543309387,137.35856942347436,10.466007927994415,21.756835552017762,7913.68519945277,550.0911308762734,1450.5504797205695,0,Low Risk (No Failure)
205.01670161515776,12923.185757919624,32087.030334901134,0.5008699533821656,45411.66898872414,18880.07722285724,14739.99312672135,46740.99454888313,12355.647843226512,283.75799851752146,8.587484511157943,21.706478528537495,3025.570479563548,1183.9323207709617,1153.6173183268515,1,High Risk (Failure)
122.56525906038378,3810.602484942851,25259.70580421498,0.10470515686242154,51174.43697148897,24650.37022171083,8563.570820035296,16267.207282922976,39238.29955784908,163.46153541964725,10.154236699220132,21.960022313140872,3387.830037346121,673.4861533170606,1233.9180380779767,0,Low Risk (No Failure)
124.23388465424692,9418.22664212805,10611.70508079141,0.9213674026995187,35646.58177086453,11443.443095375489,7789.278156391175,54326.47558358951,32782.71013415321,150.53455148298087,8.798019343417424,22.763181431065913,7888.690694520419,1165.6594885555842,1404.502121290378,0,Low Risk (No Failure)
79.7254046878315,20920.895086454773,6144.608178061316,0.7240764217904032,51256.463340087685,6627.617312622831,1400.1156663073298,46858.06151075328,20591.738599096745,210.96722692504017,9.242846600035648,18.741917202173685,3261.64897328553,637.7570022784267,668.4578257643382,0,Low Risk (No Failure)
209.08059510925062,2176.9856519061577,32312.332687343485,0.829425404186332,32162.444838310465,29014.067540641878,10654.642420982591,43518.223326103645,32411.57470404712,181.94904389991638,11.012049347097967,24.980293620523817,8273.97840226773,1485.1083084640345,780.9743375156704,1,High Risk (Failure)
207.3395840850901,25326.34076619284,20338.872387381038,0.30886520101215775,20414.699582889076,16847.07183360595,10242.243622426646,62357.44912133483,29766.992402200533,258.4533745045094,11.729026791848556,22.526483131987582,5495.270936121951,568.5095073214054,781.2205617724908,1,High Risk (Failure)
80.93978571493597,22536.443700769025,29525.97247874362,0.6722715076341925,15196.67901537055,9428.78048765082,9433.983487358631,25103.408695594782,31896.33203111086,190.2047863527901,11.890989151845101,18.285596832889276,7192.655224961358,1731.990937509603,1068.394334962377,1,High Risk (Failure)
215.90316922658664,17509.844547953857,13941.250950407435,0.058063338891091276,42130.33527508831,25008.510191846057,6280.522628838892,16749.025287182696,55211.38922177496,215.0157089410784,8.599266291879042,18.445833322588598,6534.676377655298,701.2316446243889,1068.4165356171638,1,High Risk (Failure)
195.74806065448396,4516.681907414964,23392.16929648145,0.8087422290211197,57200.32305607267,21729.57567599142,10959.337088829381,54265.401868700246,15033.494708209517,291.8486935845149,8.874807988107282,24.030555210305582,7524.2405611872055,699.8969267880905,614.5373163796189,1,High Risk (Failure)
163.7607712189901,29003.94206822596,15849.359832650587,0.5851831414984134,18090.810879872493,25534.04481672894,14248.606139143125,43116.16283479956,56103.609593543086,195.22799711807926,10.348577056165315,22.138757387301357,8035.80217608846,1173.4796145825394,538.6585090567232,0,Low Risk (No Failure)
85.65846497915891,6046.302992467602,25254.31563331545,0.2826556527573446,21563.500149757703,12995.031148699713,2263.023014211971,61151.60018172993,68100.49574253158,248.73574722726576,10.396588877953251,22.63062961245695,8317.937609906585,1852.7055503762722,1430.0175172525583,0,Low Risk (No Failure)
138.8028310110182,12911.21476123935,19212.804612161606,0.4637317359313208,49604.280007938294,15629.093616382906,8100.248272961494,43476.69182253819,67633.43343409551,171.7668887805167,11.450070469870779,22.79028452934714,6658.142294176504,999.3047013776901,1352.396170561594,1,High Risk (Failure)
198.9234048821214,28280.01544397372,16959.240055891518,0.9002770271276916,30607.948705446317,21075.442060350055,1486.328957043203,58925.299600963655,63865.61341701801,176.6301510785026,9.831427231160642,22.464895504369807,5238.281669060529,1374.5792492649052,905.5184947646142,1,High Risk (Failure)
191.61829096218855,5490.400444776194,29250.9407053045,0.9029189732330538,21237.947851537036,16402.44720979848,13759.414628980963,15846.419789224878,64963.09787879449,282.8591269705254,9.188212722107657,19.407870063369312,5019.926917572522,1653.0752999460954,662.5703042015807,1,High Risk (Failure)
192.23319457723866,8181.317649071722,10869.988868760272,0.1957751114131362,46916.79422007751,22393.263200809954,2461.757006555174,20594.63209389907,59625.2726475067,155.8496510704863,10.890220231177086,21.308270497681427,5567.419975107581,1076.3247803460383,817.8723289884681,1,High Risk (Failure)
64.40587517911447,24928.911394181152,34161.262825298705,0.23005436774689703,41023.79922514781,18085.34567795282,13044.802856241771,69392.08327050532,54102.748385629835,122.05854700715808,10.805086366071329,19.359336266390898,9105.660085953703,1405.1806367673935,1256.203992315402,1,High Risk (Failure)
124.05005378767905,10689.955944409028,17498.955503582343,0.9988260595142483,28199.77499429296,12184.98183298645,9089.008245229474,32023.806512581858,22983.220398523008,159.73937670521093,11.315094440251373,24.307020662067636,4889.229671765425,572.3524375978035,724.3303909856556,0,Low Risk (No Failure)
118.96421499580178,25451.201085862616,20306.478022352123,0.5550852504728198,24101.73949578058,26402.233659755188,1626.6169809710962,55423.050073413,55642.96894114433,263.7927895634755,11.006377717232183,19.810923891356254,5415.77124891803,1431.7918493088,1161.6799200523456,1,High Risk (Failure)
69.7724735767782,26436.493562206353,32872.29080770471,0.546309571379299,28218.606073150244,7701.732382028593,9747.34684634371,28509.50301910914,42280.888641194004,144.44926443723028,8.853253983540844,18.912121469490298,5078.71215150871,1288.1412365788274,987.0323891442093,1,High Risk (Failure)
147.50862015767632,6477.235416122777,31918.89765599884,0.08579108826203652,35139.59166364007,29411.76682120498,13913.270366429155,10808.054345286975,11436.367994486465,232.9037867075194,11.403478434896737,20.231138304480503,4955.449877468608,1915.0417377519539,1260.9370005985088,0,Low Risk (No Failure)
76.86291489724883,20880.619996316076,10657.96793814776,0.5690731955900737,55407.765452192005,28875.337074564635,14128.843653645496,41862.698078497495,40084.940036664826,124.10910389871192,11.384268609415283,19.01717235912095,7492.52644599925,682.071987593406,835.5204203749493,0,Low Risk (No Failure)
166.0843525957036,4100.67606701482,19957.07650890666,0.6942244891827255,23660.052241255835,24216.195891249594,5607.964188306618,32410.457783692145,63147.09114116134,178.44280157929825,11.517342899197086,19.090218977736622,4369.571699334212,818.256912310123,1237.3872269828269,0,Low Risk (No Failure)
166.4058679274009,5630.324131647371,28146.393719371325,0.11580488934740774,59472.98652092577,19582.394915250337,6526.948927783056,54700.75096961474,69771.75474248973,145.23143068499243,9.708389452788825,24.80729777097599,9871.083412174818,1411.0662597273658,1335.7406942938233,1,High Risk (Failure)
189.5879072484639,8724.951601470691,20545.548270293293,0.9619718697740708,53750.362576324704,7281.200672475059,3023.652259696448,41603.73666734682,18322.410022289107,122.60545003194787,10.206483084779734,21.71716586007777,8446.903213249843,817.0110895054363,689.9542264530573,0,Low Risk (No Failure)
85.79540596064071,26087.06188188642,6072.45183397594,0.7442352584372388,52383.59496242501,16872.557295774066,3647.756763372964,18126.771734309696,16738.643744338013,129.4661052107544,8.628906814859679,22.85395170755995,9075.306646901623,586.6247384664497,548.2984180517033,1,High Risk (Failure)
122.54495934488234,28315.262030552185,12521.954780061635,0.5429465845718413,43153.893084834504,8894.576198484156,9674.446485841998,39560.5503456104,35225.923582102434,257.427667707006,11.971063883998891,22.504968201202217,3429.288864285558,1416.744272241811,1113.0811391199172,1,High Risk (Failure)
202.4843649183832,8952.173784600262,7224.773173220921,0.9391974328257621,52701.701586455085,27579.597872828494,4056.0024567903806,26291.59105486594,48788.413847316464,202.03255651563,11.635341489276655,24.046469035211533,3498.1769654681134,1098.0981254367166,1353.7501477800529,1,High Risk (Failure)
165.12487971745716,23413.34415507374,28719.785781368326,0.804546692142533,35514.07672208705,26793.963244983443,3323.9999105213788,39572.20197086736,51331.05310720029,123.63036383814338,8.852718185964186,18.320637109077715,5513.28872573941,832.4018301245926,1040.4577852417656,0,Low Risk (No Failure)
65.3651895577247,26367.565840040414,28858.611343916677,0.136227778318449,31212.317387985477,25663.566401809414,11656.998669122939,17524.91513630978,30870.545916107432,174.3422211586859,9.60587492465607,18.10077601265803,4114.682804535299,781.5028022232524,1233.1712512848985,1,High Risk (Failure)
213.271337588182,6848.001126739875,15557.151672759825,0.39836128626674006,22085.310014081933,20557.587830869998,1037.2554506699116,60899.03662108178,55025.81060769761,142.61133317022717,9.721861509199243,20.370420468547685,4245.100009518654,523.4481635208451,903.6829300104757,0,Low Risk (No Failure)
139.22830561780324,18159.792097879614,9223.1137331364,0.020194923084332905,48842.11175126374,20136.31915344794,2162.0587647003267,52271.19361765861,53387.44184998369,200.0546061669898,10.802658668283486,22.095817310768858,9602.9657820403,1555.2770529282084,921.4717260948545,1,High Risk (Failure)
218.48082272010774,5044.056849949645,31591.291538731854,0.14959765614755838,30417.511670766304,9888.925273894725,10342.905305597958,66576.52709341832,18829.307930571707,237.92032384421626,11.68386555566412,23.187500848447208,4605.491111594716,1998.1136157019675,826.9236127593482,1,High Risk (Failure)
199.3101528731903,18043.139616408054,8084.256852075619,0.09722441792642478,28907.440890015743,10868.247037259305,12180.477171850882,28400.694102640675,27708.549832516317,110.17694680187422,8.264583488651027,19.127864051099202,7536.045454237447,846.7102377305205,1000.1186130152074,0,Low Risk (No Failure)
137.61514559672642,13250.927910895494,25727.61710213585,0.3461285400715879,48573.884526973234,17835.16835026083,11476.21571812511,56622.21891638172,29777.969665904704,158.40838121543447,10.910403301035311,24.54699286634869,3631.7819633208237,1098.0312978632724,673.6183752870822,0,Low Risk (No Failure)
65.02866970987748,14023.276909911401,34162.87979636933,0.46587172890767536,55759.74431034869,9154.772990387795,5346.079544558282,62016.07923674792,45959.13817696775,212.64771057425696,9.602506664550846,19.520333129293533,9232.653592807237,502.9275700064415,914.1821617058198,1,High Risk (Failure)
153.85982692538602,15649.805634159242,10439.775683129395,0.2593813734083905,15049.119346033063,17317.38953752374,13316.957009629456,54603.21541751142,36348.06565134262,261.2518522237422,9.048725485206813,18.77399735587497,8171.8749341600505,955.7111541192589,827.351966378219,0,Low Risk (No Failure)
219.38522775980462,21419.026462377467,10298.410777223686,0.6032823194505884,27332.151368907093,7174.685142027213,12818.499119062473,12355.095469018584,34302.37698043035,297.5158288434129,10.576198886103114,23.324248807610708,8980.106866806549,546.26656660358,712.5737920644624,0,Low Risk (No Failure)
217.5471583239213,16438.44681097813,28679.013473244504,0.37875144844067377,38448.58632468074,25071.227674707035,4950.858247725317,32838.76370389328,55554.85911810057,277.2941693980515,8.210935934156328,20.290275454701597,7843.590830525969,786.8156112937769,836.4086337951771,1,High Risk (Failure)
164.6868083719939,15996.419994850665,34868.26134543278,0.6509685719074698,56723.31352770941,28315.51166889696,13869.381572944583,23871.79925987694,55596.348940741635,263.7657982206608,10.792224461891845,21.991284657429567,5087.508098556136,1348.5753156020453,1369.7660809449778,1,High Risk (Failure)
117.25025345816782,27582.64997812357,16635.352990575408,0.06715778238282133,36316.779346018884,18312.00517151471,7410.739694592119,28888.772691356477,64716.86684034853,235.4382434481006,9.053586328322691,19.252407020087507,3049.6449408330323,1351.711990036054,725.0152232713756,1,High Risk (Failure)
178.91091179705654,1269.9984321082566,23448.025337514424,0.5828860015472177,33760.81343505645,6532.595543361601,6452.089530698354,49769.444051211976,19409.56584038172,143.73648576379128,10.370798218837328,21.1374011513041,4923.77763303442,865.7630381669268,1498.622145766988,1,High Risk (Failure)
86.92457416123405,17317.97391793115,30083.38414783063,0.6846716274158617,22921.26687544771,6647.8411675980215,12689.821327926991,21065.15960764043,61031.541088592494,151.77978311887028,9.614079277855986,18.501770558382297,9728.71532219711,1249.0108462311941,1323.5977197839109,0,Low Risk (No Failure)
90.38978183320975,22367.688123061303,7929.989543783688,0.7332195695814102,16237.199923240652,24778.139755250213,3394.0702331529524,24778.313465437364,65585.88189610754,196.66077400327336,10.509449216673378,21.670463625739867,6857.522955330753,1071.568334617475,1022.3197373966307,0,Low Risk (No Failure)
205.72322586302644,24045.223879538782,11977.839108915512,0.8325044000323545,38526.26773525411,23216.72204406576,2264.537918774028,16347.534687492182,28843.393660976093,261.2444823923962,9.960280208592811,21.643457616158894,7273.822799452614,1120.6203568598683,948.8572963541419,1,High Risk (Failure)
200.66972361619963,15253.912549122972,14258.230449063098,0.762038463389075,18500.33400902106,10323.227070931813,4625.385294915141,22090.8078113401,39945.08149280063,154.1547592242503,8.132544825664398,20.822326665239657,4770.671868946958,958.6774566355698,807.6365718411258,0,Low Risk (No Failure)
183.9445649889891,24191.063998080943,8443.588359818372,0.9672546225249519,19665.111096700653,28938.485975421274,9463.577172563859,42676.729109142165,48903.24887041157,174.56988174100644,11.684765810191449,21.074478804101613,3621.857922035152,884.9047368527413,969.27693441615,1,High Risk (Failure)
186.4815670839816,1370.1973690190234,16230.084610902186,0.88948999039953,34380.04602897781,9831.73067257912,6773.853463684223,39568.315347285425,25675.48057660651,116.5489525408129,11.286901887093249,18.13097327014943,5856.891987070521,1187.6284040135283,1320.8965023687979,1,High Risk (Failure)
112.45485406173091,28454.529535982758,6537.186234392741,0.3036984691289467,56547.33388590973,5486.396570363665,8415.336828613212,26174.165906160586,31204.478783856604,249.799016932913,11.29010895406299,20.132724026988026,7316.196444224476,1881.3777505753305,1453.949488779046,0,Low Risk (No Failure)
115.60300725020073,23267.966770649804,13143.819890629728,0.2563417283472579,21556.797528637904,27307.676183553016,6928.14084313808,62971.79983566672,15709.557544841206,103.06088517571668,8.602450217105575,20.282469905749547,8209.196632565661,900.2212231123772,945.8277707833836,0,Low Risk (No Failure)
214.89222103211736,22556.654493404043,14543.975940004726,0.861966756157108,29600.27941408528,5359.969313320488,2073.540121195084,42897.49490181762,58047.687541156534,195.98076871000447,11.224539699990029,22.093060013044923,9531.19659263362,1231.4825360236332,588.0126306040657,0,Low Risk (No Failure)
70.18254548586278,20387.854158305574,5995.224732673214,0.009772231419481248,41224.430104959494,29985.264696415925,13780.468616749555,48606.121236361076,44679.53238939326,287.4276505706548,9.103175630407225,18.322469934016766,5310.425626905313,784.5136115478318,937.4958049850488,1,High Risk (Failure)
173.2289495585465,2361.9682498223515,30785.831157424695,0.4791693473954418,30611.099416690377,24938.431514546915,9260.103646249274,16315.320714762458,68008.97214517137,202.8215082203496,10.123229499777139,20.289003655429312,9732.29080112086,1254.4129262492156,1121.423222473238,1,High Risk (Failure)
102.34160430805717,12509.792399582147,5526.963671119009,0.6360018039889606,23252.272507218215,10559.539504477321,11541.754021856568,24046.135027983182,57952.74890098082,128.44374422990563,9.639390369111073,23.349218572536845,5204.943418524067,605.272295095581,1486.602847729138,0,Low Risk (No Failure)
143.55892160876869,4898.56939371695,34348.08457996964,0.7856017924230225,22050.246045638312,11436.049878060803,14779.03820390683,41315.75731751814,15319.05042964736,279.74986741101156,10.71988994911222,24.021952864966323,9011.00252913876,1007.8152774705252,1017.1265423132403,1,High Risk (Failure)
116.02004146667682,26357.542919541593,34679.99860484825,0.8527367457319316,43704.27748830644,10744.911379465,2089.5306645444257,53827.41612357156,41746.32652912956,128.96291094331713,9.755462567599421,24.885182467072575,8084.860314898552,1637.1710474492645,1153.4649654097025,1,High Risk (Failure)
90.54825361146297,18932.042904318267,29372.07452093946,0.3339535232893899,15938.766268683405,6547.005281154979,8763.94906516627,57683.18519588259,60458.63567046455,149.40824172174993,9.086549530804806,21.97053868618251,7799.439987188959,1519.105677913406,599.7361686668755,0,Low Risk (No Failure)
63.99546593872793,8314.470892687947,31880.46568884867,0.9751924110715265,15649.894690581546,10042.43890379616,10154.942860942396,56820.30630699181,53908.139979897205,285.2791935884778,10.67180219403728,22.860898313321755,5957.598972791087,1404.1506332044537,669.993139704662,0,Low Risk (No Failure)
81.356795586551,25433.500742202246,16751.832908935346,0.2946182996849034,28138.9203899504,7519.759268290489,12413.478082194708,40926.96161048165,49423.531266524864,276.51552182179796,11.030645178951781,19.326284046740383,6274.718345289259,1756.763284404189,1409.0485010491266,1,High Risk (Failure)
154.50205343914206,24832.24231837181,18563.06617292943,0.7549268366376947,44960.68928389271,16769.769451055392,9919.63204670458,20484.285541325953,55107.32984859919,112.35771674764908,10.734855874703412,18.29590144655243,4540.250197344128,671.4099781232142,517.9667439031964,1,High Risk (Failure)
110.29695697221227,17556.3045588122,34442.47165500991,0.18640541406811106,28877.51458057473,20044.679110177894,2626.8540819624395,33081.64438279411,49304.46598007133,113.77081289868975,11.742699934644891,23.844604575192776,8691.973826099002,747.7064957179098,1188.5382018791652,1,High Risk (Failure)
77.55779178840056,29977.011669359785,32291.549357233278,0.5192634144878443,17846.431389343157,24025.065694000594,5624.138721553785,24262.197037531172,34272.94073397416,157.34767063977256,10.755918076465967,23.0791393258041,4667.018578008105,896.8118628942332,1485.678404316331,1,High Risk (Failure)
64.60522821013424,22341.691784844515,30748.740066593182,0.8967513646130647,45761.13749961194,13099.173320763504,11959.578279418287,10422.613211128448,44227.6875085861,264.41308215506984,8.751312635411802,24.624010963964544,4436.093216092413,879.0732358577637,1031.5365919340475,1,High Risk (Failure)
70.66432648971039,25666.825721891382,17895.69107333637,0.878216310274203,46817.218721534475,8935.355014804441,14842.669928312775,41914.86547208363,62156.18973219968,158.82148613146975,9.20720441135772,23.967359581759588,8733.876446171464,1043.1554628502345,1071.5760811861255,1,High Risk (Failure)
161.34413669067612,14320.966012224735,20893.247457703954,0.1107431201911856,35347.78300156984,21078.94007647543,14010.413633664542,58680.1734316203,18910.247741315226,287.44323476888576,8.713743860348744,22.99167692136872,8674.315367002142,1637.812064597178,782.3981697526436,1,High Risk (Failure)
159.6208853757853,22266.509352789006,32899.54349402404,0.7698580056788935,24223.09480045263,7999.382703982501,6733.804312216534,46431.39300262426,58247.00521383304,206.2553069983568,11.11585002349715,22.48533679152183,8122.814876811425,1011.2736375264744,1474.8758934483253,0,Low Risk (No Failure)
91.40708836977072,16353.63647569702,33687.77594082143,0.22024694043137183,52790.28160278257,26306.19929957532,12800.419637195251,66142.872761712,50301.77708633799,172.88942421563172,11.654012872421227,18.520993499581934,8368.493764779789,1153.2958127693719,1360.6892586975832,0,Low Risk (No Failure)
103.78026660506654,12665.55199682272,5744.279901276974,0.6892840817509648,22763.92653091989,9511.917402273084,3575.6046504136716,39902.51188596104,42402.323036991824,101.64567010939236,9.144167395836192,19.48204849946371,7370.402503736144,993.4084408099328,912.5508663942884,1,High Risk (Failure)
172.89202760251015,14193.749512104378,31249.311758723532,0.20788587191937546,23838.633906661547,21962.630670668605,5662.623572973573,64239.56762110134,30253.646825329386,236.9848456297855,11.719480581440484,21.709914199362977,3183.174813482372,1319.3956633231596,585.858093965514,1,High Risk (Failure)
119.82736752205017,12776.38184423336,5105.325527319518,0.8869339297092035,49355.0203009229,25056.080449746205,10078.004256439686,37575.61136444428,21410.453559716632,207.6408668927179,10.007927910217242,18.535369870812193,8044.102527612455,1362.7500366871159,1103.0768968879645,0,Low Risk (No Failure)
84.59056685507272,1087.6052693286763,25840.160109325985,0.39685147034186397,16385.13742890854,6623.810852054794,10223.735020726268,21628.846867511696,42949.95894146513,243.89462421375072,9.422374326706969,20.33039338896448,5864.260156823657,723.6250703675599,919.9622425512265,0,Low Risk (No Failure)
84.19949259758953,14010.34515691429,30532.756466964336,0.14102478860033574,22268.576503466757,10401.005611839493,10191.66747675504,60701.035058010406,10991.17669599771,224.39592509269994,8.326491634798666,21.14945220358967,3135.199736812389,906.3759869469222,790.2191243075414,1,High Risk (Failure)
163.87364833857018,8008.108703756369,20757.513944914645,0.8174764393049206,20777.827731101323,9459.37504840226,3279.3454317180654,39393.00030992921,23630.206625642288,144.63401957000985,9.58010032908175,24.234833668995428,7836.255968742755,754.0779889500996,676.9146066002123,1,High Risk (Failure)
216.138440931061,3362.743033675315,33355.657392786336,0.905987906258915,46408.186998956546,26520.531518504315,12963.35901973235,59474.86737791649,64594.29243453819,194.0736265751996,10.731574228666702,19.966325199366523,3743.6483041600827,1414.856720723792,1257.04903977722,1,High Risk (Failure)
204.15374331047485,23856.633855935484,6648.603616058798,0.11473596126091468,50291.851978287625,7159.359488069862,5411.210359762771,13776.31008633687,53306.93290217503,204.104594572574,9.208322397945379,23.59310785588891,4975.1220254671025,1699.0783350403578,568.5932392184022,0,Low Risk (No Failure)
183.3459525993315,1492.1047501485273,22765.70541287655,0.8701430055517372,51248.7088082265,14663.556254320016,14561.203289042867,41527.49041387227,11056.667401776907,132.97768447250255,9.124580967624796,20.141735045172304,9479.059687513285,1641.2838405246775,1491.9014870216229,1,High Risk (Failure)
69.52395205564346,25987.123552435376,34569.00860263112,0.6102584551902313,22837.54564145046,18350.222743512604,13146.89809519016,28749.467997211625,48624.0488197095,288.7869737462428,11.651727219096042,23.61448606610457,6798.763132580085,1142.7521528940474,853.8863989424691,1,High Risk (Failure)
117.4128774597604,20636.603640994355,15926.066679485482,0.5062517344973269,30069.387425982757,11439.225813092427,12147.878153418307,58773.76223097659,45327.16271810821,291.6733785533512,11.759593107432275,20.42452865147205,4845.202353844007,1610.2607302827284,1429.3499125660169,1,High Risk (Failure)
218.0857545848947,6095.74212926795,34132.173758834586,0.11043437130871647,18508.849058481515,5779.521603369071,8856.34421244988,30735.82476003074,26936.307157764888,286.84534968787193,9.168057213347815,22.89736154064078,6312.310237196885,1095.1315941056575,826.4525040317103,1,High Risk (Failure)
212.62857232041398,13201.360314489888,11420.213395216226,0.5435402377305709,50678.9244196112,29299.75246451816,5845.082054117857,20594.73834936784,14482.129653761647,129.91690067820255,11.639406357755142,18.651892451825113,6713.213926643095,1202.8848068586415,1192.8863945079552,1,High Risk (Failure)
181.73621294892507,5952.048220061183,31980.18227055209,0.8309561775565132,18627.50798097979,29468.817892987725,13423.667230138028,46253.76376897119,54493.75233451078,162.37573279760514,11.188774187918124,22.045249871482174,9795.425681333792,1571.595651061367,1317.926736337371,0,Low Risk (No Failure)
65.22544972551934,25755.267927310753,20363.115663913977,0.9539024611292499,18592.75191076801,20978.516399485532,1475.1576161278836,34856.92448340437,53520.048836445385,249.65767315237372,10.242934566280473,24.294854544460737,6916.899027446626,1380.1565039680922,1323.2854362251014,0,Low Risk (No Failure)
194.2634572913204,12873.990191191964,25190.27302889157,0.5810383241712435,25351.2973445577,21118.087240717476,1173.1965601370473,46979.81835503222,17422.278652653586,299.71222724637033,11.439855880965256,20.679548594473758,8679.461189247075,771.9853940692601,1445.1006354152028,0,Low Risk (No Failure)
195.06727183507155,10543.13960436111,10756.301393070702,0.23868888143129763,53570.30777807558,20820.73282636529,2423.831971446655,20549.960205095493,33493.361411554746,143.58898018030683,11.711476447194876,21.377583324854953,3210.1517923923034,808.0988030149935,1306.9841159949947,1,High Risk (Failure)
197.82688737528278,20279.424998827093,25820.59837473696,0.5077309640122382,19189.91762702073,20323.688208862208,13868.89287455264,24529.47998236172,32114.473854736843,287.962050515171,10.644505620678773,19.838854186743546,3099.208773565938,1836.3861297137416,741.2458887226765,0,Low Risk (No Failure)
178.83304339199697,13113.5484422163,15893.861314689077,0.3450206666104666,28610.492092395478,11474.120822505094,3668.2972602744576,17324.261790822566,24114.25164846672,186.27345796030912,9.042907819629715,19.767946288569284,6260.963438903151,1768.6933704597532,1253.3166884070374,1,High Risk (Failure)
106.59666243168671,25880.112505922534,12806.341038072609,0.6883967049269083,25877.117944109308,25274.781826380982,5077.480053780804,50289.71531749545,58958.3264666857,262.5902806050416,9.26836595981396,22.703207233162466,4835.27183272721,1739.6578234649137,1305.2618746630578,1,High Risk (Failure)
140.49343212477382,1037.248340277241,27697.8180204239,0.10561704526173599,19066.638683061516,9886.450107389817,3245.0917371304436,27093.562855317177,68030.6963790505,245.95834773785074,9.654506801103567,18.206791186118885,8640.622777973878,1432.2742233639863,708.6157789813701,1,High Risk (Failure)
178.76675703791153,6398.786036636037,32921.773836361914,0.7676754330372791,58165.73630927139,6191.023585318449,10834.921018918623,17021.606387106673,46050.27008896509,223.5854007131055,9.05534197625579,18.330609978362187,4122.840851753521,1768.380651716309,1063.7391303752117,0,Low Risk (No Failure)
120.94253706096345,17743.248635370364,25367.090625791207,0.9897228904663063,49655.49934513955,11041.570259364535,7477.916145422806,36113.43368658657,45238.82887159286,155.3087255791948,9.636799457504923,23.780458872381523,9127.782212064127,1421.1980415997423,542.7653403388879,1,High Risk (Failure)
82.27147221531128,29968.236293129226,9490.203937508033,0.5275259236745986,41503.894564268405,24720.543027308464,1126.009882092497,60669.39340763763,55363.473193972924,279.1305691712122,10.187109388907505,24.46275216486297,3355.7509485521705,1177.1128361585102,651.5948436752597,1,High Risk (Failure)
219.90619612330664,24532.51223539877,25162.531718181894,0.22448050123272834,26735.612348600473,11455.109820926249,12416.177450831578,24548.669660079067,36811.93445431438,231.43989734812848,11.287525934535957,23.29643728308865,9351.554872267,1140.1279810651126,745.683383799847,1,High Risk (Failure)
213.08797047748578,15922.562371766215,9968.60178230514,0.07849242446690641,58803.11740177603,14683.618290894372,5530.173385306138,25571.399378628066,43472.3655993482,112.53730148031944,9.813549389750804,18.08392634993912,6168.183787843138,1346.4219198043497,980.2259775845245,1,High Risk (Failure)
143.63725270111905,25475.81068631872,22673.562079407096,0.3034842085515608,33970.27902526138,17460.010641550478,11074.772043225978,41427.782402336714,32736.40070469901,138.53564179735648,8.592702186080635,20.83747631425093,9734.912283501188,1407.4169346614906,1461.9860145746811,1,High Risk (Failure)
113.99268463427663,24721.558361238956,8578.987418054374,0.4299397477851188,30505.570325644876,5482.459385039813,2398.5084193009816,65824.73557677423,17185.492786628543,273.33961899527935,11.611232237822744,21.413519170140503,9038.720161463169,1825.1209814069734,1255.2790990529702,0,Low Risk (No Failure)
133.30990187806282,28109.839172870237,20964.72454954507,0.9541380793838092,41531.292948900766,6216.394549978289,14913.113152919703,15059.051611393148,23097.43148452657,163.3935570249815,9.630668368584363,19.110985674536632,3735.338485892837,1857.8168863566025,844.6053497165899,1,High Risk (Failure)
145.27324584821366,8186.560844300298,11195.394947893521,0.23212860210310593,18949.266351549868,18273.593276809115,1284.8151125994416,52996.261871170835,42614.33829655753,157.58862592064162,10.096716441763848,22.137901526838725,4809.078946917338,749.0089596196624,1224.3510728644192,1,High Risk (Failure)
171.1514353367083,16718.44365591206,23439.28456804658,0.3934805505886262,16534.403775003895,13886.450012061867,14604.625662897026,64154.82969498064,64370.96293003101,288.39383714317535,10.010510737940939,23.387519685601447,7504.085050894123,1162.3049477605036,819.985304597185,1,High Risk (Failure)
216.32111271023095,3408.1239764954066,9923.43318787371,0.035503368718632355,34503.39301710644,11854.435991858594,5255.323221634456,43210.194000931995,21586.225688184306,260.1489556692477,9.132375729028768,20.704985924594883,4586.495752472311,1818.9990767702352,1456.334472617106,0,Low Risk (No Failure)
213.56656326477602,27462.066572680687,29435.239043915946,0.4449666567350885,43919.28748862557,13384.540205672753,4553.274719005738,24542.58010564455,30465.895145276812,206.476365216881,11.89768042315912,21.81800204881761,6139.194725280846,1068.6920467471405,1309.302888159803,0,Low Risk (No Failure)
219.01574222395172,14904.194366343205,10166.54966621098,0.14574117587397772,41105.266486891385,12958.182596394818,11671.102780378123,42909.84046631335,44270.133717454395,198.02067432490233,11.827302239697616,23.77813370754492,9380.791892702935,937.6664438308394,1032.0406118033184,1,High Risk (Failure)
93.91904875178528,14832.765545967075,21176.915820094495,0.08107491614729878,20238.345890916877,28369.51978271051,3678.62042406342,28958.286531574166,12442.658421048194,169.83756973405366,8.785740014779133,19.724226926892133,3801.0326788563307,769.4175208834854,1167.8459916490458,1,High Risk (Failure)
215.05642082252982,21957.823659760114,31249.684850732643,0.04477237251809507,17631.566862716012,26319.38010413073,12232.955403050939,42127.17295684309,60396.37041628005,157.67444208290465,9.878583604576816,19.219852160254568,7948.071754070599,1523.6267494374697,1152.4727160011985,1,High Risk (Failure)
193.92213253818753,16666.30073657994,23285.15367348293,0.5578538491301954,56781.08935778206,14984.256358783963,1417.6831980647069,21627.649980336093,51862.94679236444,276.921336295314,10.800177485285449,19.34130974259713,9066.947115223855,1786.701638225984,828.5452513725056,1,High Risk (Failure)
116.95562858420186,8504.979842571196,26361.902642275123,0.057642695597393434,24831.169395875862,6046.198622073358,6073.147233238508,17450.09234036756,15917.681423214755,132.1879820124005,10.361255305501373,24.583209726740733,5121.753849665176,1111.0283876376893,1044.688686854613,1,High Risk (Failure)
165.3664825072088,6564.322347730544,7360.5097082569355,0.5186462894216692,54155.08684989894,22956.106748691254,10553.665949456252,56563.39408039864,33824.956470020144,245.19788394687444,10.270414995701069,19.893590161968678,8880.441678583029,1475.391762420094,790.6733107926742,1,High Risk (Failure)
151.34038669431618,21710.441245373044,10952.021877371491,0.5468020259145122,28222.931344184937,8534.376390119201,13438.90111179807,21538.025419968006,28586.652449754,118.99367864315171,10.777740565075483,23.765912464707498,8272.451010791152,1375.5940240421533,674.8793706554034,0,Low Risk (No Failure)
89.35075142454951,29304.58456821033,6939.96631551712,0.2641103901790758,29950.646786108675,10427.876270427143,14915.028395868721,66172.98989318492,60526.76631579003,228.08643825353613,9.369143270690632,20.501324847401385,8027.691233646581,1985.1283164210668,1023.8555812423031,0,Low Risk (No Failure)
104.12281092021712,10946.029071302268,29904.167068299605,0.5911550046227392,45615.84864683512,7779.1625293984325,1101.9012956508127,49459.57065093292,68009.44710020654,145.90166830119637,10.82135044368055,22.187993207382256,8732.857268174326,1145.314135977595,1239.152832599134,1,High Risk (Failure)
209.74995971976952,26655.574563647147,5663.9982667435415,0.9638089696209996,34359.00435341959,23980.192442826126,1017.5017852589947,46022.500091459064,51072.44009192087,247.82827549664532,9.716594083485008,20.547747351685413,8968.7361468844,1047.6252947703697,1123.790685104826,0,Low Risk (No Failure)
179.7094259278154,14179.999255705345,12996.503613628607,0.05537913414795792,38280.052431577285,15611.912546223737,6295.732703168896,62941.98069232384,33879.56725254614,249.77912910232166,9.074483148320795,18.37919669113137,8961.587751487252,763.9454800558149,1419.8243412155593,0,Low Risk (No Failure)
98.10346458651141,24987.586304401077,20382.094108556754,0.8506005483015567,21376.27127671043,20619.347925829214,3388.3813719844406,24224.168206621456,27938.229260300952,164.29594992609373,9.034678528433494,22.293724006589468,7261.387206867141,1678.455718399589,674.3225860674934,0,Low Risk (No Failure)
162.532210350433,27967.73113122428,33484.86295217485,0.9207648141223198,55556.465869631924,12760.824799457627,1480.5829269396238,37870.66030819149,58136.459382685694,268.06551960272304,10.941036852454358,20.610785890951508,5306.617798437741,1850.2384799768968,1294.7471119950123,1,High Risk (Failure)
63.78217376741382,27681.106759162525,24414.78683380872,0.730961708161116,36167.83587797875,27852.166842610044,14341.137465967664,28915.698162155688,49734.81241184538,288.92204319875395,9.136604959279127,24.353254133908056,7066.8043447949785,1585.0027700362245,654.2073059355735,1,High Risk (Failure)
199.50608980488087,18717.44924537694,7091.232394068835,0.6350510702024892,30021.880584867053,25426.156360079243,10140.06890692577,47132.53316476168,57333.2397007383,295.33308643748165,8.858273527949947,23.023842405832774,8999.853106008099,1201.6801724360173,608.6276322538471,0,Low Risk (No Failure)
194.2941587769604,10082.27947040542,13100.14989395042,0.04533130204799407,37665.916606263025,22881.210650144323,5615.842517553933,41107.25770433526,43721.99594240654,150.97543668040538,10.181505983254432,24.159824167095852,6262.001440474451,1011.0573600281232,832.1195265554959,1,High Risk (Failure)
81.44243655210252,4262.590785272321,8144.679228222966,0.9187237493338305,33174.76050987395,16166.126732747816,11324.348602653614,39791.55728060755,16895.76049262123,263.67759592839,11.068317288445968,22.328164881132583,5595.402284566275,1338.5310031257902,780.1665949052924,1,High Risk (Failure)
150.53608965011946,16611.46478828745,11517.397174426413,0.8025265348633159,42860.16128865394,25347.58680681234,12183.949791791018,52076.11476650305,66461.08459913095,170.40630436772133,11.271696331616663,20.942346963584527,4037.7739423338635,729.5892279464754,757.6553488675574,0,Low Risk (No Failure)
129.89611241842874,5563.775917147402,28241.64867828025,0.889964607500909,34543.12962436337,22869.434135865577,8271.925050536167,23813.69700668057,23137.782748971207,138.56178457723885,9.057948063487032,22.13411415575835,3221.697922060231,1097.0754204059413,501.10802623046516,1,High Risk (Failure)
215.36931922645886,3877.892282670749,19534.18427099578,0.44114882504680186,25024.115109619797,7264.860143689166,13783.234492727146,20311.66939591191,22872.086693596808,128.37472764007148,11.177044513606665,22.81849598135566,3515.4119085759726,1683.3806140157824,838.8312871699497,1,High Risk (Failure)
168.0729672538281,24582.282271249376,34563.12153108981,0.8525002438794788,32422.09677600459,6035.781153210915,11334.197691794023,35209.59384199888,22569.61143711632,134.18146970518558,9.029730362740295,18.166349692219253,9668.247013135344,1254.3949374384972,963.4623773729764,0,Low Risk (No Failure)
146.50161945761704,23094.806936947036,8838.498227592945,0.2283201737969427,44468.505022568235,27493.52727449361,4084.3530824645322,40247.49493227175,46836.88340161113,246.20221011857956,8.884211233849223,19.545117499164572,4810.013692730676,1770.6459005416564,572.7667722700348,1,High Risk (Failure)
176.6044887121036,20168.240798840598,14458.415393117677,0.2757462605850364,40687.8375894956,25655.342798765338,7254.1097384360655,56401.47289661849,27583.736156942432,123.92601579595548,10.872344078795988,19.5127958331673,6591.976803701598,661.8624750997585,1495.5340100218664,0,Low Risk (No Failure)
165.3858167903627,28484.251316182854,31379.702746091596,0.31218321682151096,45280.22117951799,11416.820663141503,3388.400746291895,29627.573918281843,29549.57454040816,209.69864773243663,8.674882240955515,20.744248690261674,7624.7361692278055,824.1648533955918,1269.7864121076395,0,Low Risk (No Failure)
171.94233113953948,5961.971873988654,15015.261930301574,0.4333420303683231,38607.94957287186,24021.046310111757,2682.1679324041343,51669.41628748657,42921.47597256012,217.4204988429061,10.781683039633183,21.46802242308586,6306.344082686854,601.9619214694452,971.9402093682784,0,Low Risk (No Failure)
109.89058129364153,11989.721384562721,8198.578184162705,0.14874150987149748,56041.546516498616,21467.63856816315,3832.520013722112,57387.22481418976,53789.37512986444,168.69777298762693,11.623457659821458,20.257229823987085,8166.175784959139,1292.162022130991,990.3288552527379,1,High Risk (Failure)
81.96800523449124,9299.245253139312,23078.987638569044,0.4069721949110915,28630.27242878042,18131.47784366479,10565.79275205139,31927.9206970536,24373.62640037061,181.4032241575979,10.92484619602622,19.66092172648164,6456.619969081011,1109.4622409957083,972.1412871585801,0,Low Risk (No Failure)
73.01580490270396,25470.573046090878,15332.841386515647,0.022921573149636942,17391.731647782657,19979.12183417916,4990.812053525683,66981.00237725503,54012.69382894357,112.13265878695992,11.840715619071066,23.264061601707713,5998.136381890272,1139.1328468871602,1456.6783898808187,1,High Risk (Failure)
77.67585810102315,10687.320904178829,15042.305953980867,0.20328955543595617,30831.80619390635,10769.134637079289,12680.489968593445,27695.56878532546,55540.19423621135,162.56020474595022,10.821802102381106,23.38502082827351,5779.458104928808,1736.2335778217948,959.0877396549542,1,High Risk (Failure)
130.02581250371256,6809.854811796828,10512.167775272837,0.4619192934106374,47838.097496327784,20690.820553471698,7098.937437125963,34369.6895922545,44429.93905523059,163.93780935961664,9.125110191387469,22.26180090107507,4577.488931080112,518.6792422507488,807.0964087481572,1,High Risk (Failure)
172.31470036123255,28257.806813685558,15813.890874477665,0.3561391620149682,52946.676629148424,11432.314189576115,4589.394386080345,64856.31106779127,64136.17495747466,205.3777121450003,9.722076209695647,20.722829022319203,9048.227821708948,1984.5411357040118,1073.651796007669,1,High Risk (Failure)
84.3044309619671,19591.497003882625,9185.803416790077,0.03184174454809785,38191.844883510385,15184.583145110846,12027.637631513888,33232.28907232707,54581.63462931042,235.4267555617841,10.765094325977733,19.01369150430407,3470.376329638463,906.817353544806,1455.8103998258434,1,High Risk (Failure)
170.46317258069845,14319.806958179139,31062.716916097615,0.5526345818291939,44050.813659292704,23827.491994290842,2726.950584506999,60262.77771759863,10777.975653891952,256.54830104420955,10.047016344771134,20.898310708129582,4396.884835294635,1342.8413559643504,1498.3076368662596,1,High Risk (Failure)
118.07725446461946,14204.233891795924,19956.346349938798,0.8679111317392613,16317.66231456658,24495.737654576104,3035.7061627817448,59865.24021586326,33999.75289857087,275.67707658602615,10.524060530913742,18.89517445487188,6151.163984588904,1997.9025747076541,649.9475141134006,0,Low Risk (No Failure)
125.23969680043717,26412.478107194187,9834.910636884833,0.5636680450932987,52285.79154476845,25684.78515548536,12974.93134607093,27640.555829641,43544.29544721411,180.7006056403008,8.891074766336903,22.247045534409203,4723.8014709364425,1683.121557911845,761.1769425783648,0,Low Risk (No Failure)
96.31656631544337,29985.65050154698,18737.575015988627,0.2620938971799537,37659.846795764315,27983.951637960396,7906.065108650493,24917.249307219863,67271.6631793956,169.33960692588323,10.618950571868139,23.627840664750167,9492.206037427564,1726.6013540509707,632.794551792915,0,Low Risk (No Failure)
191.59689018149774,9971.688300320373,13135.333571336103,0.8849936133950259,15582.16015239102,21489.348546795463,6283.0131839141295,37019.47528879954,19992.35392598992,117.20911303484051,11.602225082996497,19.043582162839265,9137.92102937784,1668.4555964286415,697.3944750166279,1,High Risk (Failure)
148.66848040252694,7795.426903865277,24850.25182152591,0.2737979914019122,48868.19958454271,15879.927290879874,4891.765199034655,17112.702464432765,29520.989853256957,262.57991385428295,10.050745400180446,18.57346260837177,5266.977765831963,867.7111964901707,814.6540060473028,1,High Risk (Failure)
192.273177558638,14342.976170172951,6471.607177633816,0.9958862757597158,38233.581939431606,21252.76499320253,9268.448853335733,47875.8601606506,13594.444364119377,278.446091043872,8.282421543863709,23.31637983383546,3489.2672096636634,1502.9855602529183,977.7039539928971,1,High Risk (Failure)
82.8547143702931,25935.78021971853,12972.391285599842,0.09889083998231696,54578.47166637393,11708.70168121374,13003.584100665903,69528.96536176758,61268.86571602435,291.3062265930255,9.733404697491459,21.68863861285639,9272.540426135813,755.3041647795418,605.3987468643041,0,Low Risk (No Failure)
78.42338854323218,14158.859047260252,17948.465521170474,0.40307554270022805,40345.498893457814,26718.319916449593,4438.121860120293,69246.97359479508,55255.37436537985,277.7052183596242,9.388640341062429,22.35240339772332,7258.379250993699,1526.034097068199,1025.431893804066,0,Low Risk (No Failure)
217.0012123826043,19732.594402249306,30066.178377242763,0.39235596048155974,56130.001665417505,14177.00933981904,3832.541060185711,53984.2822100511,64973.29587533288,219.09648690294787,8.136519759936192,20.835132557825297,7485.6823110795585,1350.3142943251705,1378.7614911253463,0,Low Risk (No Failure)
197.15694997916657,13822.52800527154,31676.420402725726,0.7754145149664236,17781.1907809239,15149.61914567304,5581.868213765836,49122.34865012225,48719.52756517528,221.27381019200624,10.647429114073908,22.419105224920923,7538.697476478385,1668.2546287620098,852.1906873461195,0,Low Risk (No Failure)
73.78114225018885,10793.612467002511,13905.561028399552,0.07560158889467905,45168.439947050334,27042.79117916427,14765.865239248136,67677.54349059606,13090.68952803612,110.46679919044912,8.463033416463528,18.963489328542252,5088.249278906296,553.0532224953507,728.0639751649078,0,Low Risk (No Failure)
161.35651517218355,18820.484347400583,22312.32327895296,0.32938732198659637,17182.381600227218,18688.451676230827,10886.692876174171,60150.541909092535,65718.50580295298,255.71669437026912,11.45425812937297,20.214922631449127,9554.819597000178,1008.9562362281622,1337.4556446713295,1,High Risk (Failure)
74.02283948221417,7941.725253919344,31690.8117598268,0.8713573412322078,49130.101500340905,21946.27960767087,9905.658200938304,23598.806425391223,44864.32369886912,266.3100708509313,10.640755796962146,24.604776022152187,9813.581606089307,835.5456586405478,801.0661784754736,1,High Risk (Failure)
105.04339174638879,21726.367175085474,25474.371987105857,0.8620508569761278,48295.892021499734,13304.33219471214,10726.137786912139,42313.25503938525,56223.249558071846,272.34798050653325,11.32702920195984,21.671902712838893,3751.22384415353,1552.9140819393178,789.9925588665021,1,High Risk (Failure)
172.74892203786348,4327.516791807565,32912.70479536333,0.7040996843974501,51224.03721305446,18038.861310074746,5144.796760041304,12297.465549276956,32420.660210342925,272.7804897556995,8.11870346663962,24.75102000249104,8337.80905587862,1095.5217982048769,921.0735575840988,1,High Risk (Failure)
190.76884995411788,1330.3003745680312,33798.097153966526,0.6613393083885826,23740.9404645191,24417.863128210123,8034.4926313302385,32290.804200849358,51610.00916654903,226.71267111075943,9.708009591809697,21.597785605371417,7658.343040554259,522.1033066294231,1172.0370900829166,0,Low Risk (No Failure)
173.51021834143597,3309.7087420082094,31870.076379136794,0.7042632868203458,44595.48452066837,25422.400931799686,1656.0505809088515,66721.85794539013,40025.21759231108,192.98948296961814,10.663108277400728,24.995933535172213,7528.595028918757,675.058583912634,965.1662620159599,0,Low Risk (No Failure)
193.07152698812376,18448.911649993486,14622.932420651006,0.8019462757417753,42353.43679985061,10212.651203505393,2420.403327107984,62932.418366316124,17838.17228942681,199.23458278373,8.834237319542648,18.15826767937328,3546.6695496455304,1317.8236371186824,869.3545525780124,1,High Risk (Failure)
85.39788213988953,27368.686260204882,32178.656292481475,0.39923916966917916,18680.96012223524,20837.94892384562,12087.056353498287,58501.769156402166,55576.98570703538,258.08033042215317,10.090176876254574,22.09656650220101,6788.847176989128,928.3199870834422,728.2276659362316,0,Low Risk (No Failure)
138.10842804973024,15364.211761083354,27982.399973546635,0.8907579670089915,25024.464438762745,12170.564399005289,6966.305210765455,22534.985010536606,17581.33108086159,239.17235156045854,10.921720596204153,24.899079363953632,9830.529762599814,853.4729057196002,521.408735195127,0,Low Risk (No Failure)
168.23486995621795,28481.086097099345,16641.47810175243,0.1667455686259366,49515.52623082896,7131.2311252887575,14672.695418919026,64009.582426797126,14030.311750470528,259.55965725731465,11.55760316436233,23.458140729662556,7192.452631460375,1127.476963448474,701.2261879051342,1,High Risk (Failure)
151.48357632773156,17017.80239020958,22874.22597169909,0.7823830932235503,17160.533952413673,27683.410791173406,12449.778043542532,65151.691536972176,55516.35107668017,124.4918265776922,8.70897110929831,24.786674077798384,5253.356116252902,1254.263085284388,1115.2787164951233,1,High Risk (Failure)
113.65945699479398,16301.109248322527,34077.26391374114,0.1847649884213569,57439.86304740595,5081.773133281255,8804.37073181677,11593.446890755791,53914.5166607107,273.22633592805664,8.039455341519556,24.812405102942765,9695.349855021128,979.7463412647402,1478.1975269540785,0,Low Risk (No Failure)
66.44568300447975,11726.77014379562,6465.248699622318,0.985666023024507,20220.83300756128,18315.30536602508,2419.5151407809017,34417.662299140786,57553.878453859295,228.72540238613544,10.834793725601628,19.52910639975005,3684.272902272149,1414.55259776288,1382.6444415794094,0,Low Risk (No Failure)
216.06565882955923,14061.11317813123,33176.55484633055,0.5745782465305711,39158.98201879631,16678.25356908707,3742.082067557224,19684.171713164007,35339.29380594908,206.6076326929345,9.770728831809539,20.208624608417544,6216.130274518406,763.0291404449396,867.1402092594503,0,Low Risk (No Failure)
101.4047970560027,19078.007412837305,27922.790006389445,0.7169769010638771,17791.11939087524,6802.476728754498,5698.805894637619,18261.167903196503,13833.720915960599,291.41252643956125,9.974075659824315,19.579286418325893,4496.670726725696,1113.1642787763117,789.2964559519515,1,High Risk (Failure)
170.08728913186062,4580.443638191345,29947.08495094585,0.02864593131025661,19489.561523286284,28335.91476332382,14458.144405785237,26630.390366230808,18856.056713164595,203.72846598351765,8.550019369951153,23.18807021596456,8460.571673072373,1339.8090114543868,561.80075859249,0,Low Risk (No Failure)
174.93298805952065,1606.375857721814,22899.887207974443,0.26724697507105233,50844.39297133406,5491.564749397045,5852.965235779145,68113.40429828031,32053.70951450942,256.086691297769,8.124332750288987,22.50021956910761,7471.1982789648355,558.0517210857133,545.2680479512735,1,High Risk (Failure)
91.88325383468813,12838.888061042662,22453.737943331304,0.24789697275087563,57820.23836425571,19124.75745205329,5271.159928617302,64453.28676095456,59449.842392269944,183.0929124164905,10.132644250347635,21.0013486177781,6968.052885729308,1984.4723136020257,1301.5108413372113,0,Low Risk (No Failure)
101.3793335820862,15429.416418273051,34317.24695001347,0.9578131827533579,53454.08401357558,17262.3662909255,1493.288730378798,21822.155785178154,33931.35558634982,207.0726563646072,9.736653566928577,19.696371738854538,7623.630335304357,1516.5709316694747,1486.897671176338,1,High Risk (Failure)
92.14939018544904,24427.112102972045,27816.743465597687,0.49179398006265684,52289.78120044888,26900.520807271852,3331.6782969981623,29961.187494377562,25855.770125887357,198.3572349021348,11.940004865831785,24.92397825731704,8833.806138032744,1480.6871691925508,996.587650309601,1,High Risk (Failure)
88.03548353693238,6703.96818870518,11524.53061588934,0.5477157081792359,43307.11471141726,8015.220583797906,8840.058257573488,29912.999259613967,40792.036272805315,123.88345451552772,10.606124767690748,20.559576416152648,9887.93036732318,1960.2570014031598,1377.0162835563938,1,High Risk (Failure)
203.7696967479743,17067.693120346114,21808.102267909188,0.9004053185650672,41447.642671107926,18202.678149376377,8098.117323164361,35490.01639664242,61357.72200599525,247.94628132341967,10.218184728921507,22.179255429014223,4793.496082936117,1184.5463784734657,718.3996923129323,1,High Risk (Failure)
121.31445855156028,10007.428170464558,16174.008434770198,0.5763088198890566,43496.41746970451,26345.680195818906,8724.69625955495,31467.791373651376,57765.944044725235,211.60540782040624,10.096385494555355,19.466131162045553,6015.650035267767,1920.1891191476782,1156.1871366672972,0,Low Risk (No Failure)
97.39852672587908,12668.745646699856,31201.08318948256,0.2495218575861523,26229.8576496804,29850.22570154958,14349.353681076811,23982.220393545886,45420.594275799805,258.52162731044984,8.748713794713508,24.304107345889808,3349.5531187671377,1588.3260749525534,676.8568611844923,0,Low Risk (No Failure)
108.54168698066131,16880.747540141474,6274.12731465234,0.49009069121436144,17684.80004987722,14685.068014856583,2013.1512405710778,21101.016597627502,63277.93115403338,116.53355939657376,9.735526056726716,18.62780342511393,9090.813314406072,1421.2354272319953,1348.552447340512,0,Low Risk (No Failure)
115.30676533181811,29204.478833842368,12620.634472866881,0.660386440271344,45670.08905832279,18325.68762156755,12458.979829038148,33451.10083795058,45668.93492956241,154.88394374903743,8.864728250186205,19.905295206853193,4201.689285853033,1351.3117373047905,976.1061478469612,1,High Risk (Failure)
200.2825018818799,2951.253774723922,15606.465626130113,0.6157897989801244,51970.00652060966,27782.05430508682,4373.507917076047,27889.78313000643,59718.40233916582,213.09946104141912,11.743312505352923,18.071435176042062,8676.217343839598,1463.8035867232861,896.8049873974486,1,High Risk (Failure)
164.66793623585193,5414.618203589137,14278.06636376569,0.3248748670992887,58574.36428044458,20125.614930073534,14315.33411932814,15152.659025388148,35165.30062095121,281.65546597035143,11.821139557548596,19.630354807471157,9068.250274812593,1278.106159182487,556.9319932070971,1,High Risk (Failure)
181.94793394906316,26360.653556104233,16006.051828586882,0.35857887210691175,22652.245180574668,9684.695002402841,5058.058601793897,17936.448266652624,51612.68749977777,231.04768195851963,10.255516045913943,20.5936176952131,6844.156377120995,742.887893990476,1479.400235421017,0,Low Risk (No Failure)
71.39018375363663,15041.017932738816,34925.41236985687,0.04051952543966997,34436.630460566514,6391.659820108207,7588.359637104114,23011.6679677601,26428.545688339076,188.32350084879374,11.010858223049334,19.949563459244416,7456.980662687745,1708.2519584640636,599.3519986675608,1,High Risk (Failure)
147.08117392244014,12109.94157412695,33626.94072429265,0.835588608892925,50026.30187075405,17762.9736932475,5999.375222181034,40567.08723518654,53355.984399009,124.66014542358302,9.394147987961112,19.79206083461856,8582.195431770619,826.0863016575265,972.8567237956195,0,Low Risk (No Failure)
182.34415206157976,3073.5877056174254,15391.97959288557,0.5248335138013768,51673.53021089308,25918.35456381652,7650.390610669075,24016.571577433646,43235.2629241518,264.3914513445785,8.493524126851351,24.350881640383918,9694.751052658514,1538.085732306505,839.1589501928524,0,Low Risk (No Failure)
213.77125079511282,1483.4749673893598,13747.303087272958,0.36564216270421135,59868.36946109147,6970.365978600855,2546.6209647664164,11586.392984434786,21691.16914449028,155.7985695000541,9.665072157030764,19.951297698140667,5626.095239096781,1114.115146236391,787.7335081218471,1,High Risk (Failure)
98.2688166745481,9444.6971949021,14342.16935134634,0.4413111123884602,38425.654809144646,21457.52196011008,2600.631883612087,31041.18942984408,35026.28297464145,214.84669072363891,8.071529563355366,20.8625562109473,6953.635807790437,900.6988680070336,768.2482149232153,1,High Risk (Failure)
199.65750745050633,1453.65556391559,6834.385431430586,0.9853851402679057,46839.94876404409,15121.640605439985,13212.26738936858,36510.71939542574,29579.449538264147,220.46711639015797,8.87782567770892,18.775312703776617,9032.998143645229,567.6069260332437,866.5523977752073,0,Low Risk (No Failure)
110.60322395668908,8113.099844256652,32280.80980174904,0.7151719526095807,37726.21898260323,12544.574293496244,11970.961557626417,38387.36697413538,67146.90749460054,167.5655258335417,10.788470073889542,21.506357865447534,6479.059017035811,805.7160258782416,1395.3855268538618,1,High Risk (Failure)
141.42248889456894,22137.244775169278,11477.768028168724,0.5739114060333979,24688.423379465075,11791.670167075368,10806.012152415316,60849.21143984698,55055.389947780415,145.98095112189478,11.443400420482764,21.48563133455624,5119.549721036168,1033.5534800482797,849.6416990812588,1,High Risk (Failure)
170.97888919580726,15603.532157703094,20529.44267052815,0.6942771170796391,20604.99247797702,23779.529037478962,5459.44056081765,16643.770662370953,57176.39879387255,201.6682656173111,10.408947631346637,24.335812791424658,6685.01386441488,1467.7938275683302,1034.57270346679,1,High Risk (Failure)
172.39439528705662,17317.007264179527,12359.314939579399,0.791532618666892,47027.471627725696,14803.33581382668,11584.579511997481,35114.42743336149,13862.104301314932,106.77600562956502,11.036997246080325,21.38509720412923,8081.307476536417,1450.7666672709256,534.4137914195342,1,High Risk (Failure)
154.77605257493795,20534.68512790416,22693.388023342355,0.8434824928142858,54372.74961706261,13440.711926946651,4201.871920101784,19132.146851707555,49510.879123502185,287.01382728516865,10.673180740111938,21.21424994378043,5340.092344620387,671.6938567567616,539.3123514461653,1,High Risk (Failure)
178.5229788406727,15865.842078992797,6259.1817873051805,0.2979574289583591,20095.16065130479,5829.318925879724,5023.003190679968,15364.35287195246,17411.436317312815,289.93668546089077,9.175848724845093,19.979083382431213,5196.5526756053805,867.9193417178959,981.9046723850681,1,High Risk (Failure)
209.98209063953902,9797.564184210943,8905.833796111001,0.6333385818425894,59573.18019525956,25565.83888290411,8580.658058871573,16008.27214257811,31678.624934744552,128.77588317275925,11.568836370279191,24.721610412795005,5739.213276587152,696.8891438126191,632.7494505810005,1,High Risk (Failure)
116.47336055237704,7415.8967743938265,10431.510814164425,0.7457411365514027,50584.956385766054,28101.432884000173,9766.47159769454,13478.466763474782,55944.425452271884,163.36884529906493,9.666182893380672,21.61217625657836,7228.786495182837,1990.5776369324428,1368.9131970224485,0,Low Risk (No Failure)
214.2525466384173,19867.589174311,12209.68642234492,0.46808162108509843,37707.679954475796,12963.803437577571,1605.6844308030313,69233.43064627412,69250.69243786886,212.41287684751828,10.145454752741788,23.854094339557964,6091.0706654856895,1542.4375398440652,902.6926107335631,1,High Risk (Failure)
123.76075750357975,28861.642780369308,32152.343833834435,0.7198303117499537,54300.35884220699,11486.865724149215,8148.054781784003,29478.84519350088,27396.57501183604,204.88949570416972,11.168329113295089,23.786051376321716,4961.602840545118,1651.5050465389832,1330.3083713969377,1,High Risk (Failure)
201.4057415941481,10257.533635799466,27998.679955234584,0.5421699104457148,33837.16278227857,17448.464087803335,7680.918887345618,69734.93589732805,28691.951712720704,297.37373154603256,9.99373713067585,19.87993776607203,4937.673867134627,886.0590775947171,581.138158184274,1,High Risk (Failure)
112.32530585011818,21704.780488078373,26088.969906339305,0.8156217710403867,39833.86361255245,23743.105055340002,3566.599304988359,27606.29948734345,60844.62235040913,216.16800009677036,8.049628557709978,23.97793263691048,6881.138471139707,1821.086912809288,722.9382716586123,1,High Risk (Failure)
140.04456563324166,16305.394062997433,23081.894015228056,0.3837153495003267,26204.24698041814,20598.60541989901,12440.750352029314,53793.19039051536,40762.7547798514,182.91530114546836,9.760793283318087,22.985519730131113,5624.969283732822,817.4115834807619,820.1306593601223,0,Low Risk (No Failure)
77.05488484927852,28514.924433065626,23814.151821833526,0.16962409303157244,49480.75057858901,29392.764157097703,13625.313924193233,20973.549091441884,60000.91669326855,155.53638178133303,8.466412948182324,18.308300553497393,7600.837575097448,1661.6913451022829,1392.3176371198865,1,High Risk (Failure)
121.24545606448649,21164.249539107153,30316.548969968968,0.7773731292105488,41030.12593512489,10715.477411008971,3099.1816045978007,34108.1836190646,12170.923452116109,288.4653202154162,9.252535743637484,22.635351865396373,3143.34167498164,1758.4412489967156,877.3651672791916,0,Low Risk (No Failure)
91.47011157005169,8637.544950944299,16530.170838755832,0.3556484328316968,19033.857070635266,16093.519488243392,13426.005829828633,24349.32393583351,52287.39590237815,148.90258110818922,9.556720044178459,22.32672483028633,5932.536340447851,1195.2600157375773,796.0140135991501,0,Low Risk (No Failure)
144.95002854593503,3098.360474498472,22745.86392066119,0.28195832714264546,49320.25907894493,23095.38809769691,6906.071576016324,60202.03085642134,21971.6419778932,278.3012999130164,11.138481566385003,23.281498127464324,3160.3880469672586,997.9785204739251,1175.2114228161936,1,High Risk (Failure)
188.45655177568182,25445.41899122972,19821.286008072,0.06852598759698814,56628.89846187632,11715.290997761522,4011.8768849941903,38270.53540892356,10111.237388891259,286.47075886499744,10.52066181368928,22.37453667640675,8217.168075570535,560.2320095064924,989.9900782891216,1,High Risk (Failure)
147.87626635297926,9193.957758040528,21585.25387954305,0.7827357103601918,42362.80283873,6742.617067668364,10949.34229223027,23161.50650695483,26405.41881986007,225.37546906015427,8.622465503804676,20.797654340290194,6729.463669260593,1291.9870806488507,1382.609750835914,1,High Risk (Failure)
206.08663470237695,3739.4103482315195,15824.204787372537,0.29146702409733705,16787.81190141109,18864.017844069363,9880.682584562823,43344.43216836249,33178.84104757656,112.54521808941254,8.633165376488424,18.028181885247157,3081.828025044915,1564.7771747148033,1084.9703578998694,0,Low Risk (No Failure)
209.91325168497005,13121.086732402726,23260.625836484025,0.511442833917623,18917.911649083522,9224.823121959367,7276.397679149745,41865.148984317624,36336.34641570372,235.30765303670327,8.320219202626847,22.50742085555453,3596.0830270810147,694.7072409661841,812.9607152148774,1,High Risk (Failure)
179.0248299683443,25221.64943453443,8827.737178621315,0.9088272140969338,40142.082866753466,15930.503191455033,9828.828483761594,37009.99984307242,44082.91079192425,238.36134089534326,10.409116527261546,23.82360792714204,5334.271257083739,1822.884506838529,1190.9078016153958,0,Low Risk (No Failure)
198.90276070040085,18263.028392017583,19526.391972793717,0.09318878597231284,37336.86635877844,28958.76407503482,6512.666897965814,61341.7912296383,16233.95218525854,259.32365694547286,8.44417417415237,19.827597987447724,9741.342579177292,1646.228559197775,1220.0111581060014,1,High Risk (Failure)
141.50754050396637,10783.41327236111,10775.897463144185,0.03218440321540217,44011.35232580031,16325.864208893296,6996.598655608973,35208.469132790495,35663.141641467606,205.8031381139939,10.56400916150578,21.74044685111197,9678.536749232291,1179.1063344271624,605.1113352417711,1,High Risk (Failure)
128.33724618020102,18700.527226726554,29633.783134555393,0.27332958312466293,23357.45334754354,27104.104379837074,12427.250390352368,58081.63198544549,19848.483616683552,191.15915270523033,9.622197495291601,23.53043287590441,4265.391391487388,1143.6678394953913,1035.0874219497498,1,High Risk (Failure)
97.59574479935245,7119.194059518256,20344.603076265004,0.14869931829754823,51906.48305783415,14516.912131036708,1812.9981400360475,47212.70798222922,43240.00860954539,148.4341280674496,9.778864640966043,19.471038372574636,9853.704365728481,1925.9686192954414,985.2680760763551,1,High Risk (Failure)
78.11808733452084,13068.667445778574,22877.804363502015,0.23468353288525023,51661.579157999455,27146.575651891508,9442.955678539263,46709.08736665887,37139.489732953196,180.15818899689873,9.098920143305076,19.00146287795924,6952.620378154506,1258.5984720739525,1027.1806506222188,1,High Risk (Failure)
170.80518904593728,11712.096779894968,6636.189820254521,0.5612056530988694,35540.40314380778,15170.403800777141,6458.9858642848985,24227.989387304176,61937.07869614822,290.91686676410313,9.39198700809477,18.9075620064056,4576.30681382164,1001.265401983731,973.3818748471931,1,High Risk (Failure)
94.82678393288577,12476.600065573277,20002.770073466996,0.9346053880772532,22186.028060793782,23744.18314627094,3683.401081911437,17056.576715185736,32553.901195799433,182.58406694685203,11.623260224195155,22.750137694931844,5869.592910472951,716.2602313416967,703.4729897009001,0,Low Risk (No Failure)
126.84175668401595,26504.418111844876,34218.21750719771,0.8004100633251034,50014.06007319333,24182.214232452323,6992.435827689039,42454.691557546364,11608.62745304533,224.93360226309318,11.401807601619666,19.323998429085762,6975.161938638645,556.0234308149578,1269.7650549113666,1,High Risk (Failure)
152.4149385409852,25231.579447628814,10316.281394637186,0.7470862093948251,41617.959889605074,16106.09802005805,3564.7673545498,48892.10319295468,57000.006009811754,202.90855984688622,9.328387706881948,21.703836275378208,6027.036739877625,1522.3689307531445,792.9210703540757,1,High Risk (Failure)
70.95051347882018,4613.812023518114,27749.171405398796,0.9010384977340232,17179.045188777112,11732.912377644323,4530.155469401578,65482.00949583974,64523.852320980004,185.59154309408643,9.44100093069129,23.4544114777647,9630.022044559491,846.5918520792052,1358.7254943332,0,Low Risk (No Failure)
167.78326679598524,23062.019943221552,10106.990973149917,0.18391205123282506,26601.176264638616,7720.597550318679,8639.471221711843,43719.27670710296,34603.85695827298,150.83523502289955,11.950731644276523,18.54352005596306,9155.758282652769,664.1826512504838,716.7824867035318,0,Low Risk (No Failure)
200.73309679224468,15607.061075885895,17129.372936592765,0.5702481249473995,54187.228961323555,10531.098610301222,5022.796655412585,39192.15086919344,13200.863464965481,208.43830641576764,10.973762896216346,18.530628066498856,9402.205396178546,1635.2651287753076,996.4359843278485,1,High Risk (Failure)
118.0003175250421,21899.269180728006,25586.99840289343,0.49344170056256587,40306.77520670398,13889.884852025782,4864.673116798189,61390.71909028516,17313.86589489863,284.03887102676333,11.646068156347964,23.800246915689478,8152.82214404474,1140.3182489159783,687.7836599735285,0,Low Risk (No Failure)
140.9014645475134,10183.846324490854,30499.273013287868,0.5606429251459861,25124.9404657907,12391.231541434365,14842.601361607838,36105.4028053212,42010.41034220473,103.88127458058199,11.05596669626686,20.203548982452972,3862.568220267853,822.2118909379927,1325.8929309854848,0,Low Risk (No Failure)
77.75831507415697,24569.254224835702,14335.773330631297,0.14862413046990497,25358.25711003007,19462.52879127863,6705.046088526382,30829.94915100179,38232.14204612178,114.73319972998353,11.038306725363372,18.358223717241582,6832.132310298553,938.3058478125708,1042.3987569753451,1,High Risk (Failure)
163.06387543614653,8618.10598652015,34757.79854924332,0.10480398953958903,16198.425911134726,12376.75566874673,10451.854014445058,57283.62675777454,16051.046053733706,291.4611278752336,8.19138799496683,18.926800613032785,7470.275845423537,1488.5174454513403,1011.4014237606473,1,High Risk (Failure)
211.4773966277433,18676.326782867844,29509.053514246287,0.6074783945031181,37733.605293874614,6736.675735305265,6905.815555622348,23703.66028513912,66011.80604525152,265.47660303746187,11.473994964727726,21.456331124949536,5888.496553962027,615.7816449892575,1304.0434338588962,0,Low Risk (No Failure)
132.90508044571408,5534.502107701376,12394.337287302085,0.49858628739121214,58779.20961698575,16306.56906309021,3276.26778093744,63286.67846342865,24148.82750516807,288.22792369012416,8.650774173717423,18.598804599358978,9659.354766261644,788.7001975342403,1479.0652893434417,1,High Risk (Failure)
137.40840637770356,24640.226727126785,20722.17339520113,0.07467943281670963,34839.25671727849,25466.05471346082,4059.687137511032,37413.500884668785,64111.780667401945,161.20311894760746,9.442245061556187,21.57399435231997,4060.961706272392,523.4397525596847,766.3945867913571,0,Low Risk (No Failure)
126.64070910462064,22846.075024498456,12007.372493655988,0.7094027697193312,18568.611363902386,6496.179743172213,14855.554929021233,67826.40731561839,48444.63760323894,250.85705062616574,11.398749507154816,24.030896599412394,4869.430146235256,553.1942860467827,969.1523352923521,1,High Risk (Failure)
71.04734501033596,1404.5215420654322,33760.93224096195,0.7878331881854967,20312.650489281637,13738.79470508365,6139.141938125598,28316.84278187016,62247.61276462498,232.06097881986628,9.897694156208109,22.696379339918067,6846.340819355963,1433.1430650371062,1215.9462585798083,0,Low Risk (No Failure)
101.04480999107965,12120.952554676232,18436.740345333892,0.6614020331187831,50872.549750141814,29987.719891594363,12777.875419219416,69260.81669841,24849.124888424652,254.81219495370465,8.384895749645203,22.654697359749342,7182.483634918927,1820.339934220387,937.4400948560725,1,High Risk (Failure)
73.65559439900288,1786.09291775076,30368.789003450565,0.3921348291027752,18652.166210612173,21608.96729136611,7360.183044893619,32834.657676177085,17845.55202015518,279.4389605257076,10.002279421967495,24.34699876266712,8253.810823139465,542.514498726293,1021.4296006680305,1,High Risk (Failure)
156.69007715845117,8395.105922531195,28670.146536820837,0.07558509240544731,59058.123152256274,22563.874674066272,1566.176612566715,21722.553366001164,44001.52146647541,185.37950830332557,8.171900686407415,21.55159259073247,7506.300036695172,803.6069503870406,1469.705490900532,0,Low Risk (No Failure)
79.5017749339116,8260.403157554809,30543.16088993343,0.6615767405740585,54005.225420204566,7396.741867705459,1461.4007281160375,55925.83731268167,41223.78199101126,284.7095699677101,11.783805451334848,24.969522962136754,5675.817885547546,554.6508096011158,778.3874706068934,1,High Risk (Failure)
185.30582894779155,19715.02307426763,10600.5177774295,0.20296941416418335,59258.41384752306,10356.196223551835,7995.579574430737,52739.4936355754,54725.773557512286,248.0591947242684,10.465798491074306,23.865817298497394,7482.544926726071,934.208010724208,1056.4143297470507,0,Low Risk (No Failure)
145.91590766294615,16799.91559452952,18008.677607050216,0.998174737892465,18314.269557240386,23512.919988936366,11157.001895383355,43860.58670270455,45706.44268958092,266.8901080089466,8.35208052362176,18.890975763163205,4326.448175570968,1057.8330478635232,1102.7164962920856,1,High Risk (Failure)
215.35043993673898,17102.636355630268,28279.217262496644,0.3815388424735465,32216.708152545205,21054.99270014371,10424.878026051552,18742.586372123733,16607.171435402346,285.04254133935956,8.945146241889315,20.562742735142145,8978.553921152521,1543.4450581750757,776.518682398518,0,Low Risk (No Failure)
64.12313580229619,18235.620283871278,10548.36011635196,0.35373825277990334,30643.251064754746,24286.346328446984,10619.27209407795,57777.05825340104,43984.538978075216,125.74346122617,8.32410217723383,22.410163612823634,8616.885277958485,719.948503901622,1453.6922515326055,0,Low Risk (No Failure)
219.92923252007017,7198.36395147541,25453.904338531596,0.6916294905987989,27880.039546157124,6964.289557291793,4351.693118067682,44186.00477298977,37784.895299394455,100.74552691805164,10.75614107615533,21.525453880039134,3058.373700028055,1125.1714953878359,1032.8631668695064,0,Low Risk (No Failure)
185.3844820385829,2893.0259694274528,30362.576051023098,0.5705528549499722,22273.815105184844,21340.735807932884,11023.132348376621,11679.86456923761,45748.704065138496,272.5783645457878,9.454924973635894,23.046678998438765,4857.291566246578,1037.6275223146786,533.6707615567335,1,High Risk (Failure)
105.95539347282413,3095.879561329193,6859.130209382308,0.11865584470938995,54318.92063972012,11645.680881844528,10050.651415338014,23923.259301444807,48007.71553019923,289.0262655866119,8.032819649281569,22.020490900020686,5958.255552533195,1776.7836931099996,591.5119552373865,0,Low Risk (No Failure)
166.89362185130338,14454.151640191836,23366.271897716473,0.27687051696515663,26048.282571980686,5337.431772106766,10528.628303291202,40725.81744730803,48730.13331031195,250.7098694175499,11.914315321893428,18.658499222058108,5154.958322123888,816.895052094449,670.5292762587076,1,High Risk (Failure)
203.03835360125927,6547.043760084514,29601.78097238761,0.9021173086422778,51114.46060394505,21734.77775221612,3456.2816541013053,68387.73274873846,14174.275850517388,260.45138561662884,8.520816109100615,22.88704058341264,5240.669749704424,741.1304622940911,1420.8379198842983,1,High Risk (Failure)
66.28994237457583,3232.1063072325037,21096.64013032398,0.5635783427765488,31388.76155813478,11445.226211679823,13750.839417922967,27057.196208838475,19055.772436775165,110.31199658374169,10.595444204431148,20.064499588997165,9648.502076571325,707.3100079745043,1057.5512931970143,1,High Risk (Failure)
70.58643021351047,7465.5502481748545,13728.75291553885,0.46773227111447047,17579.592188898263,16082.162088805739,12661.46001802111,58329.70587799604,20496.294680700783,245.32130450106058,11.493901366305227,20.18271131215093,8221.559351081389,1847.5052533057867,746.1344818159978,0,Low Risk (No Failure)
140.5011956082464,12814.752876729113,20273.410774666376,0.6225784902212987,36468.4727201646,17908.854066662396,2200.1293184745336,21128.770201385334,34397.09848861733,111.33708272417346,11.477082415981329,20.545686900265583,5557.220748488199,1247.981061356944,1418.1883407019682,0,Low Risk (No Failure)
93.61715086597628,27078.258902465375,7201.520499560256,0.23232378953192756,53675.96000867545,6326.294147792015,7984.861943593433,19473.535666483484,11659.105351915308,247.37263833049388,10.533742047097146,20.709214927150605,8704.317859283128,1746.2238898033813,600.521054679758,0,Low Risk (No Failure)
142.93274437819787,2583.6987931906024,33270.03484805111,0.4660035143530129,56726.80466071368,19500.620057924243,7062.149038265594,29349.212308305658,26805.77471568739,170.84271437496304,10.266797144238746,21.069785799095484,5339.069107758391,1986.1790556933654,786.2634204326847,1,High Risk (Failure)
192.1491693680026,19884.733650765043,10590.004290332221,0.6774346844463005,45375.22898620607,20021.059491385597,8299.120625218522,52435.2463040668,15023.274018896813,172.45479825449019,8.994853189597302,22.372097307974162,4848.875294404148,1434.5662733842914,1100.1402001974957,0,Low Risk (No Failure)
76.85838756013703,10648.01521108743,25350.5188836506,0.522643433131149,39840.19259483929,14371.539991294207,1117.1726457011882,49955.646438050855,38199.68978102644,137.99529245276256,8.950427947363023,24.704757067449307,7429.8249140823955,1074.9251649235578,1422.5080080230518,1,High Risk (Failure)
117.12469503520195,17437.377045303514,20380.518603498283,0.22986959120225436,55805.52317487113,21219.90411841015,10425.161396103003,35515.53511617091,39246.66045936168,286.89371193096895,8.730213396868358,21.1608211935236,9409.15776186781,1153.430227555742,1023.5912811148954,1,High Risk (Failure)
92.65030216745609,17550.00018572859,28062.043801364078,0.19409453928960518,43251.559308150245,7038.152296801362,7508.89711353269,40773.60749957071,16124.269217652183,104.53022644527363,9.955341044369995,19.206314012268436,8705.772992823282,655.5320728957997,1430.0458878555407,0,Low Risk (No Failure)
186.85670704541428,18182.006823146297,10595.330375121794,0.9336575454082716,41857.26996143581,17914.033162130785,8441.365057350095,49546.10472121082,35189.154675075406,125.17120739476115,11.165179641795692,20.07307876958508,3691.9062359785044,591.7733852905595,1024.4961598024163,1,High Risk (Failure)
210.15714531426474,21004.811068534094,7887.517497131768,0.4514588460004906,59945.67828849922,14955.257715852544,13570.177043583042,61020.73968801198,32912.01083569742,202.38216420971537,10.042678878124953,20.14802687069578,8339.745678617772,876.2966259513178,816.884602846852,0,Low Risk (No Failure)
214.24278513883237,16758.769713749658,8033.755645449748,0.9199013664369213,21666.354797506905,5722.204306799045,2808.5429721739515,18927.03901179621,35375.47680561214,163.7733346491117,8.518528162849556,21.58774165849718,3538.3031624778914,1389.6491573005205,1379.5645652198496,1,High Risk (Failure)
117.30235464466311,9726.653121797144,28674.31853878736,0.7129057903648376,51858.234807517896,29472.858079038306,4868.577005587867,66244.8646004484,48522.263098836906,181.05578777530417,9.38701217139727,23.2473740898686,3499.0221047568148,1590.3928438750304,617.5862429196084,0,Low Risk (No Failure)
215.18824405523054,26447.18801021315,17690.43338725288,0.5306881410624438,34405.66461257732,5795.184176948568,7715.070607284656,15852.345614843445,22479.5350364195,263.62338115973785,8.059661486169567,23.126089774867427,3894.656001282581,1496.744978067978,997.8564742980526,0,Low Risk (No Failure)
117.63050262580207,1633.5546475998524,25315.721710179663,0.6913864452150186,56019.70717373279,20149.65675662643,13828.841950329528,14776.649486600734,48875.43211356393,137.31312427999836,10.438234318016349,24.25069048569706,3445.4501924319484,705.5885258890195,1225.301368106488,1,High Risk (Failure)
144.32663422586427,28070.198052245712,14203.18254058497,0.2553138011712709,36261.8261417122,18570.43405195439,6219.3883164889185,39588.20610674973,17093.843476650618,132.63179183824025,11.274424508435708,21.381667123600263,5211.612188073586,649.3301916817888,1085.8903733500667,1,High Risk (Failure)
165.0609717932602,9793.366854839145,11751.750365440163,0.7464189397373387,47125.093338331455,21029.067646129428,4220.64156006681,60319.08389675787,21742.95656493309,231.79346297543074,11.797583442398064,18.10522448254296,8303.166833335952,1931.5489375622778,1344.6293786570814,1,High Risk (Failure)
162.97243123144398,28068.98068368019,28388.25927627395,0.5022944086937836,48949.21631219676,29939.284509163386,11290.541002712918,29190.72240310037,47932.024546069704,137.79249239836162,9.25507714178373,23.407489013948094,4250.152984236493,1174.4176019850834,1144.2737463709866,1,High Risk (Failure)
73.61655777916566,28721.64519889928,19009.743617054446,0.7172991516875343,41365.690603239476,10974.16333971491,13500.20995652953,28651.75514395731,62336.04301618927,251.7072359080605,8.066192261555361,18.37938870075455,4864.561672800067,880.4273894590145,835.1639824069154,0,Low Risk (No Failure)
161.77536742552675,10550.317046992624,24684.491435094962,0.781043121076968,19801.053174717214,12005.503840267593,8107.091997628549,31822.17582892457,22038.468544987216,127.71517455339445,10.911649432644392,24.38457552239232,7731.0815751415075,1233.6881642935577,1067.8704680697783,1,High Risk (Failure)
201.3237762281958,15700.973366238637,29849.689059255277,0.9969869008908617,29853.18602021195,7520.786971556885,1260.0583407117037,62110.24701741179,22338.886341954138,154.00567795738112,11.137736189372884,21.44951160620942,5420.90937730682,1780.3977118476407,1499.7522309574156,0,Low Risk (No Failure)
126.82671933071916,27683.300586356236,9193.149832804835,0.9754819924477611,41666.56563500078,19332.379686753713,10494.318758690672,32643.68753980257,36864.5608862425,185.05426864572604,9.307092095028267,20.176537110797,5995.625883885559,1306.8467801015142,1179.6582858962038,0,Low Risk (No Failure)
203.17066496968442,16203.386895594364,20266.287542280043,0.9145287636368638,54373.6592015038,20046.19075118075,13601.948360537539,54780.610594642705,13423.503020909622,161.3952129887191,9.500672798394486,18.424899084008796,3751.0757147717322,1144.0667889540218,816.7428108520901,1,High Risk (Failure)
119.1318719082837,13135.035418088284,32957.0805326181,0.47924237503933054,36422.3037268718,22374.040522353796,12735.917841936605,63306.64430552818,42307.48279468827,136.3246313993091,10.18141712664162,19.312653986939658,6130.868861289613,1282.6338615908157,761.4304682648399,0,Low Risk (No Failure)
132.70037352959375,9133.196878041605,25828.24239307589,0.06225058994145427,57987.89762322729,19197.45572375437,13842.674882047351,36106.5239614538,19799.973310908623,268.45723355239267,11.185925051307876,24.995690247463365,4285.560110237324,1658.880437593242,600.1916020005023,1,High Risk (Failure)
125.66349231834585,28781.160927991164,5419.451389140942,0.9110851315740486,53157.77586273371,24774.134971717474,4449.391790496351,21119.302633070707,49570.67634066984,288.9138149682021,8.690605900857458,20.916810191747953,6640.591245519638,1825.9119777428473,713.8115905748073,1,High Risk (Failure)
172.36140256506627,11514.913165245634,14416.381204512949,0.5059262544921704,38132.36048820964,8355.801363286679,13631.72995592879,56993.47979411988,54349.74145170902,105.20600564061593,11.076718866866841,21.159345862683356,9919.462290996338,713.4769067371406,823.5414505833569,1,High Risk (Failure)
173.29161244736727,13480.049438793812,27784.59707564921,0.20316003836420893,25365.487003445152,6090.0845896553155,5244.820599379958,37633.31772842477,28532.752487581358,227.62691852918078,9.336758998873979,22.929935726729845,9128.189812492325,1384.7329771047764,1120.5004605193376,1,High Risk (Failure)
195.94358250838584,5219.949000833415,14918.988645786261,0.2843439098197933,18191.098985369597,22006.81547414507,3793.3169726172086,50294.44379861225,12660.596431771604,139.07414690269454,8.488652323337242,18.124198639209155,6301.494084812263,1014.0941872155898,976.3810644716702,1,High Risk (Failure)
193.53148644090044,22856.317999377858,27443.307234798067,0.7988504602006344,23133.31379426497,15764.09762353253,10712.315232614012,48721.11116697364,14476.544667976788,291.55998281660436,11.225704799904008,19.761645819601384,8658.386839505023,1697.5261464217162,1425.8080054638049,0,Low Risk (No Failure)
202.4422054225466,27537.855180210867,14655.399056039609,0.6871225203598057,25334.010509556603,22314.690991790794,2714.094253878801,18084.69181921946,11779.644613856863,254.4712172149086,11.303706759737254,22.5010826277845,7530.899815815435,1861.0918027484527,686.613568927977,1,High Risk (Failure)
153.05956687827097,19190.493618443368,17020.97843729759,0.15205972777803234,28637.103674336395,20361.473149334073,2882.147482989574,43147.04353809221,47559.91038118903,293.9137073042559,10.934622643828355,22.07521143940298,9440.37975355387,1013.6584305261276,689.9970780308965,1,High Risk (Failure)
60.095670213567246,16588.169905888404,12954.47006651032,0.3895276083725533,47951.667712880546,13269.695505175156,4982.154131673703,19198.50069127164,30160.56465042862,210.26213016660944,11.865296300398708,24.462392597173526,9773.594433396167,1392.6174949090068,961.5237517731823,0,Low Risk (No Failure)
88.98932464801325,7595.2301329823495,31826.841282207406,0.9218345099671071,28153.26446378171,15489.977304415992,4692.341761327896,63193.028873756,48058.55627936404,157.6413508774066,11.480339507599044,23.489026388985152,3467.718350555292,1560.9960274765106,1375.0057347582083,0,Low Risk (No Failure)
183.15945965713394,24658.804679733563,30643.350388867377,0.9488008296776355,56411.62125502984,11516.709891690198,7471.278419878245,69114.82704684828,41229.90529019521,248.23688505058033,8.754300768334351,18.900692700822034,4153.29649780399,1558.8675900761352,684.7176788763945,0,Low Risk (No Failure)
148.74992396613874,26053.196172529282,17705.72276903068,0.5833204782437709,23068.601913374,21533.56529994981,10842.109448320003,32248.066358186414,14170.896523105781,281.7641990696627,9.19381213269618,18.170632914434538,9315.4375630877,705.3755315064382,1065.9107071042438,0,Low Risk (No Failure)
198.04753240691656,26556.483965127336,13599.77745341758,0.7444883899492662,17407.419363990826,11235.39703505826,2907.621273994678,65907.83211712382,38210.06078623598,175.45130016473718,10.81830752599941,18.35349541041733,3683.062208739677,932.9162992923337,535.1103691647836,1,High Risk (Failure)
203.66706991322653,3599.3214258339194,14910.73066097183,0.9566600884242134,26892.834954561687,5116.389539169556,11021.582717803494,27301.154113071705,11776.838049470916,190.29461578646163,9.604351134829123,19.17293941769034,8915.340106296466,1943.9820768041236,1236.922930315346,0,Low Risk (No Failure)
86.72543137473204,6973.657341465723,21800.11967686755,0.8710142873937492,54151.013723512726,25120.634090386986,6051.460183606624,10754.948206092347,12488.637216997606,269.28081688392683,8.883662746255643,20.557714608700493,6159.897147966063,1331.0462085074796,982.6539489371539,1,High Risk (Failure)
139.51415726493283,22647.111736856306,28854.22167534567,0.6433243136757882,49497.78588581916,21429.412631836964,11908.326765366885,44167.082049250195,32762.236950369916,206.52731435303707,9.146668485031887,23.81939224089335,8156.619382343574,1000.1734814434071,1353.7837408144621,1,High Risk (Failure)
83.59240427300543,7631.451790153497,13173.39323326495,0.9394316270997966,39767.24558887678,6927.050659016861,5946.881392125956,15670.938644172777,45545.4293246683,159.53510094486487,11.015327345605273,23.785384836238066,8761.195040985327,622.1774090907998,706.0205093087234,1,High Risk (Failure)
104.57445424511337,10154.385953757914,11251.510370264761,0.9666149922642142,29201.947587850853,20226.472904853705,13792.040013881404,51262.551318479935,28989.73852306959,121.07928115848037,11.240791809605447,24.008504852127423,8357.661643719102,606.471231403092,1330.60301894338,1,High Risk (Failure)
69.6363111840476,1433.8747494327206,23887.02185506315,0.49725431594847147,47924.70086652099,23849.585255629157,10641.968849465737,10669.424703341281,67403.91343228554,219.45254562243014,9.970815307270216,22.383178720832472,8913.190079351,1060.3974960030068,519.8080706928594,0,Low Risk (No Failure)
158.6640503233181,3497.937374922052,30566.426201689384,0.04592005609126304,22352.16554090477,15075.808363563721,3136.0806858273213,28942.22790942497,34760.08124902932,227.61042179114614,11.219589568951871,23.80078631095687,6480.471677936102,631.1995115781797,1358.5893191831487,1,High Risk (Failure)
169.1506702808158,4304.412813891762,31255.61640376187,0.9033211052692545,35064.480386167925,18357.860494634897,11548.97952620682,60263.09791150501,63078.945843856796,139.19577227357394,8.39302071508817,19.184421842280738,9971.728983476227,1962.4503150130504,737.46683243455,0,Low Risk (No Failure)
115.95251675933594,13564.277036961808,34844.39087911317,0.8826056237288415,22248.79111127002,26852.3630034835,8364.075650520317,45555.96632138915,23755.925779228455,211.0142458459065,11.051531361774586,22.34748439104738,5915.595421003818,1178.5476050217983,819.5224107913407,1,High Risk (Failure)
62.09511305413338,13104.105312213725,30638.226882001138,0.5764598564592339,16714.172021528786,26107.931035158086,11164.200960408656,31491.472915155042,45433.33602462037,145.55647692976692,10.952718893967823,20.333346906030677,7362.337591824601,686.6552738568315,1328.5673393728553,1,High Risk (Failure)
181.3221113486436,21395.121567225262,11814.472665108387,0.7785142948525573,15973.831048856311,10989.690462350833,10157.315978488872,31075.019822589173,52220.02341297519,172.3348528927159,10.597366173845387,22.903238108497977,5633.555030432723,1361.9916319134356,1034.9093325747235,1,High Risk (Failure)
88.48575469916022,3713.222800457731,31058.84511531083,0.3230887472945523,28355.826321607405,28590.195545591378,11577.46948075076,46284.190590804435,59130.54597387717,292.8753448430365,10.12050010801527,23.215288249231566,9710.47788714754,1629.9431567109361,537.9046972163529,1,High Risk (Failure)
213.22004552086082,16683.98485517465,6497.674569901373,0.9033146675661857,40696.27760627036,7364.0243816867,10056.54283649878,57356.90692312614,26720.389158820028,269.23866733785354,8.993576716809267,24.49227922407278,4541.5200633181985,883.9045060154417,958.2682970757896,1,High Risk (Failure)
133.72460288523612,18332.787730180313,11232.478190365711,0.2100529201793052,46575.37126431448,24341.00388498836,9916.873075355139,28326.278182729737,25923.73152141955,112.28321647431576,8.158888857963765,23.49497827363874,5880.817719015748,1030.4958094802182,764.8409980340024,1,High Risk (Failure)
92.36066888392558,1951.9394657579637,10927.537574849548,0.7785818487206433,25494.221249260612,27632.12356519097,10559.178302223008,35240.98744638423,13149.694075898868,164.00090394242767,11.753481485392113,18.6155048332845,3912.868993222334,1310.241256818073,1046.4682709175245,0,Low Risk (No Failure)
131.8959587263427,4484.618503333037,29672.66930048832,0.7322402502058891,49959.326049846975,28330.917280996073,12200.684835597935,51185.750035945886,59617.911832907645,262.61108516240324,8.74879177426131,21.753562324486154,8131.881473661932,1469.1510956295936,558.2566723332038,1,High Risk (Failure)
117.4773391039625,29068.072412589303,11834.022671385686,0.5292555409507501,44081.851966832735,29480.877313404333,3972.5014759094843,20412.784066066917,69367.2708235069,293.7589693315846,8.191089061133773,19.27107766747902,5988.481554753771,834.0592108473498,571.8816535120469,1,High Risk (Failure)
63.831402443277355,18660.974220505926,15847.70799260929,0.8893376120214482,51153.352196533604,26216.767471853513,13477.200590554132,56911.73688996361,17239.32110861548,241.79237882491773,10.43669843279384,21.482503842511093,4972.842101503539,1045.8774294444238,1272.7861447505168,0,Low Risk (No Failure)
89.78174364053567,2298.283271966119,11157.725892088103,0.4192369414973601,59706.59704501322,18896.867295667864,5255.690728092619,59360.69609139352,10290.560725796802,229.22177689433192,10.325001343617048,19.57931997446015,9439.504438898566,1775.8365577800496,522.0988240133754,1,High Risk (Failure)
130.27369619995477,9856.991457739789,9449.052044232412,0.5503364977619415,37103.24401933214,8870.78295483617,10900.248692155792,47532.37883401585,28295.991646158884,229.3875610143628,8.629003693807489,19.981407634690974,8077.6804305719215,1301.2895013745333,530.5155534487023,0,Low Risk (No Failure)
156.90206229174584,1309.4336831787202,15159.19084059405,0.6713298173865903,55620.20266237666,16318.249840523316,4590.547673990495,46673.5151228888,29890.811593402264,111.26841571452435,8.098161988624236,19.307005272898376,3019.662547689313,998.3236045210094,753.4126663319012,0,Low Risk (No Failure)
211.34794304513383,18431.397296403255,8418.859440744569,0.44527911683724464,15836.642638036501,10451.6908892983,2845.664353189708,53211.20077585407,60157.35396976538,196.7647204493685,11.533436264348257,19.662924417195402,5009.0117412960035,1216.440568262949,1155.375083009388,0,Low Risk (No Failure)
219.18525162342965,4672.476640032856,27023.73630970906,0.7785353710034054,17972.04917877031,18606.50054523707,9051.9381747113,43076.29244198534,32738.473689526098,113.57402060595648,8.19369267321832,18.391296291770132,6666.267027629758,1186.1684263128893,1109.7530487071474,1,High Risk (Failure)
81.03825918367706,29691.135907219137,11466.29855313636,0.7253105755407004,25587.124703101807,7917.544210590917,5174.6802299453275,21609.59263774471,48787.43309663928,131.11204009031525,11.383384200429434,19.65708510029166,4540.922907670394,1016.3208676173356,1458.4333474382388,1,High Risk (Failure)
68.73046532523183,7126.6245912076965,33847.36913116748,0.9710291312450997,45058.76743511742,13979.688835414127,9751.374638035732,49911.256053396275,13612.267716993922,138.93739944822872,9.201675359734862,21.348034762784135,7555.963687018211,1782.9772328675704,739.8645986672722,0,Low Risk (No Failure)
188.24593790127832,14037.917234687608,20236.82628593833,0.6338529008835424,15747.730202722225,14428.127496406301,4135.391724325482,31207.659860450203,16980.143344526765,247.10769922998958,9.498708452778446,23.05350122692579,5912.190768222925,1299.185713224761,1447.294708846533,1,High Risk (Failure)
65.05378317210273,23704.7848134696,17985.53320387013,0.4154820866996033,37668.46629186279,15961.43201353534,2591.5897377563406,24890.014083649796,44883.46595187001,126.03873646128699,8.708215062720566,18.9412431696776,6715.259856248256,675.3971228483776,869.6952757372959,1,High Risk (Failure)
161.54740372063063,3043.3596523417905,13080.707545414823,0.14738326759734854,25465.584348299904,19134.9879496168,4054.3361828210177,60814.16370864843,12469.07441688355,120.09309798744837,8.32377081786418,19.89251464879799,8854.62709042183,1864.9539643824728,1139.4001829263013,1,High Risk (Failure)
88.65519029250905,4346.595890144018,28945.12407853536,0.7009820060218269,15065.12492344497,6857.897845897941,6714.041364044548,11064.324454515105,51500.76055678666,296.3298402744101,9.741341685309774,20.47661074447357,3026.530563069122,1807.526750751876,776.5141353766059,0,Low Risk (No Failure)
194.26886319684778,21503.903910363646,18313.845229391864,0.6112067518581934,38259.40844377168,15135.955701788596,7020.394454432246,32464.815038284705,17283.539529152287,176.8931086933057,8.88068898775355,24.679937044082433,3840.627093234208,798.894199678496,1361.0280249550071,0,Low Risk (No Failure)
112.26227990814576,16613.141419996562,19112.96742989724,0.589443220604249,51895.51934930062,12563.05231284666,6819.749935546981,60306.3653918411,60813.80178677553,144.2179155267223,10.802728355254015,19.335410378614352,8385.867644770402,1415.681355754555,1143.5534287295382,0,Low Risk (No Failure)
171.52251855924288,9435.428772715892,19132.485521135393,0.1825971310870993,41855.470350649804,19185.03954809261,4271.184647608021,69889.11328330009,60520.91012185292,295.95682261370393,8.28161975060855,21.1279354146748,9093.95443399762,1994.7581324693933,933.3453933722776,1,High Risk (Failure)
113.97289741532248,24021.241452309874,30074.19108853508,0.7100227315001846,17002.24920682796,20391.24745724652,2833.9814197087667,43995.656214291615,42511.12784495739,217.12636000578485,10.120938711510664,21.05067178502122,8269.134859809137,1541.6004156049062,647.0627675416507,0,Low Risk (No Failure)
114.37999420289059,21696.14821025246,23255.138389123596,0.38187175223450043,37872.88978762159,9852.594179177702,8652.918263128622,40904.80929732656,24423.126134276783,197.58213625560217,8.255454638503089,22.222700014289632,3427.262543310329,1763.706359620971,505.1030021140931,1,High Risk (Failure)
171.70587424315923,16043.687566326575,6117.616418425883,0.9606008100125213,34482.620453793104,21258.529231610835,14509.22741689336,22653.818553345794,66796.98637539244,288.34062694126703,11.69073349259741,24.842396291637947,4311.9471949486115,977.2713235145611,1401.8937475956182,1,High Risk (Failure)
170.56893003828188,6033.592180391753,12036.323022441593,0.13367024886470213,37786.27018337288,15147.52048326785,14985.576390782884,20138.088178715327,15013.783972647534,228.34604312217166,8.746093222313249,24.73557474362713,4524.162843134008,929.2897808089231,610.6530703435232,0,Low Risk (No Failure)
186.65264699613576,6575.479635574666,10622.338639513307,0.3221125959691381,33270.25979769342,27550.482487238583,13423.991362973287,59560.68102997726,56295.481290576485,110.6408403715399,9.991125117893121,24.88259098401413,4676.548005320732,660.0427149616971,1487.3151305698361,1,High Risk (Failure)
122.28729824671625,23383.24502167319,15617.174787705762,0.2653063701204189,37836.34595985334,13650.657100668679,1793.459314710615,31765.192139007027,15659.46859939325,282.9205582700514,8.028190450004042,20.10415300894508,3839.4259139829437,803.5405198632053,935.1299722078406,1,High Risk (Failure)
183.34749514304832,16779.654056929925,10130.325632546852,0.30277359235669243,15507.125078522924,5951.705778746992,1094.3678902469403,63136.485953770236,66651.87835785323,125.14364658558497,9.226666419528325,18.895614028654506,9854.052612758922,626.5928196573809,910.4478320577828,1,High Risk (Failure)
92.24454048101006,15985.345303261869,5578.973966809543,0.3175581396196847,27185.788335633602,5988.768233406381,10953.923444349273,67891.96069606271,21065.914111681523,140.70166574050245,11.850938674403297,19.818444453173036,8240.936385220986,1350.1377042193176,1370.1116207583143,0,Low Risk (No Failure)
84.77257801563518,11722.396515307973,30181.125906136713,0.05651462438806232,49232.15825413488,7187.167240675375,2836.625586852152,13108.715301778406,26016.99079730754,207.33861395114772,8.758476946799327,24.214113619623237,7486.977273567049,1202.6436542264487,1289.3451084443702,0,Low Risk (No Failure)
132.76229480842576,20531.986817700512,28535.304070326594,0.15716282299175,17530.121212088692,14425.496416772652,13381.561869393621,43468.801228904274,35034.110525160955,281.51885974219255,11.946520048510664,20.874696765070617,3814.2095487152087,1202.157332150733,1304.5265660497294,0,Low Risk (No Failure)
92.3225069443984,27630.266026018777,26682.860985190902,0.6306871883123164,56860.77709693741,29420.854266259616,9894.485469598352,14118.6561835022,52984.88277661055,193.38935133666462,8.051112586535455,24.29977496747559,5510.056851621575,1410.6080561135109,1229.9888563804402,1,High Risk (Failure)
81.07440457265497,4387.319124284608,16505.27073478217,0.7278256691739439,30788.26555958191,26438.492445821277,2231.2219472759634,55546.52464601823,32822.17575852345,149.22313708104664,9.160215516796635,21.00007301505179,6690.7111425528,1312.882550899133,1190.6658644055713,1,High Risk (Failure)
103.5113663069518,4845.5157316575205,16443.232463168268,0.6302388123829044,15687.322712829813,20945.928300252348,14564.960957992467,20716.270261580874,30975.595813786116,197.60280761457642,9.593262366283026,19.833856660351476,3073.488117669682,593.8368733937467,785.159229625653,0,Low Risk (No Failure)
132.2070580846808,10731.158849203057,28146.498058634515,0.9525859813174191,26226.595258429574,16163.928925851897,7998.083860148223,17977.962881445597,32586.338687577336,154.83040196400577,10.792321510645666,19.055254874097777,3107.360272897935,1124.0762122252368,1085.5448003964043,0,Low Risk (No Failure)
78.37389195827257,22889.996292507607,31482.26228621241,0.28526366194153285,46150.524359043935,11897.470423046196,11423.736346852727,35326.36286659408,20577.910398903718,179.92293083409442,10.020287646181954,21.52806801995566,8284.481553735042,686.1077684275594,1363.9539354680342,1,High Risk (Failure)
187.1695277999887,11170.583851770445,6319.1492486436455,0.42804779194207465,51447.525411880626,5338.608098110052,2649.0641373557755,61647.69071649463,19373.448021083903,209.69926894122727,10.642438759181129,21.651140502158754,3630.2595769270515,1350.5944651610957,1270.3371653358072,1,High Risk (Failure)
213.79049021182627,18728.90803118406,29556.277397165093,0.8616571554970481,57111.57413172269,29629.742241934713,3767.5071792995486,18871.295563570442,41262.89576697744,245.86037913131992,8.738484526536107,19.55247367438418,3849.4764322495616,669.3257651587289,857.1893238196299,1,High Risk (Failure)
126.52401656373151,21595.02473111466,12047.8757908743,0.5926780659137455,44775.796030649915,26631.55572829514,12199.911687110909,31004.54829001369,25445.292660770603,292.97376152672837,8.707403208197464,24.111903602858426,9636.41544133909,1263.185286422395,1111.7268711483418,0,Low Risk (No Failure)
146.60321775066848,29959.902255767156,30008.22676064721,0.788144013967911,46753.13491099131,12756.317156262268,13253.754854118632,43434.29907179591,20756.770579090735,271.1381709650141,9.847413332770731,20.508605900861816,3327.263811961183,1761.2982464300273,797.3549685746223,0,Low Risk (No Failure)
145.2846187593824,6840.573981022734,12859.266928355526,0.8496111865110799,51476.69223946543,11874.139593006706,10039.838224217054,11023.924993964078,60988.783921429706,121.13216962808269,11.081312331393072,21.215278949292728,4299.350705868803,1529.6420639817543,781.4580153063941,1,High Risk (Failure)
192.1565140332931,26816.399446082123,25201.747373474926,0.6112086528155425,22426.67987340375,19491.76087993849,14428.999816879643,44837.88107014267,66133.21831162776,125.66661341648975,10.344297477350164,23.600815823700028,7183.450684135123,1589.9748502831517,664.7558003622548,1,High Risk (Failure)
199.68690352243254,18105.19743875291,29670.905414372915,0.5840191798678459,43105.0876130441,17257.845474082533,13277.263907155331,45746.74470506904,45307.54736932994,135.75705660282097,8.73178161326569,22.090302374214517,6651.92973756414,1767.5474003360855,1393.4268808373486,0,Low Risk (No Failure)
86.77140864016965,4534.78715033041,26531.667642304743,0.7869596829641969,54662.59493866036,25269.801804070707,13205.653025901896,36696.878696319305,40471.79910426015,133.04595619567277,8.432265056029372,22.983118142788733,4022.478560058513,1072.905323976131,1406.557514690062,1,High Risk (Failure)
180.73109779291786,29154.771738163305,5521.662287763017,0.8969631217106169,27622.70287698708,21871.31036798373,2437.9022095149517,13290.817415600124,59568.3992092634,201.29359416769375,9.383504226768096,18.03177035672154,8944.276752595153,1193.4699969290573,976.8246225160826,0,Low Risk (No Failure)
195.29669807838508,19364.798602787178,16898.263980030344,0.32456428425547634,56395.59565469539,19724.546089729894,9361.524223752076,36284.369010857205,34916.94416676581,158.1841500866524,11.84035101883702,19.960188100921282,6458.104999962118,1481.4533059555047,538.8993550846442,1,High Risk (Failure)
212.32999146224043,9057.154087374975,27159.861606854756,0.33897083719155985,59296.01947774019,18190.247517440286,4969.110693890676,47564.93203747993,14422.27707062902,178.662799996599,9.01345891557631,22.541995759573133,3790.58535432087,946.9381048566286,917.9149918364674,0,Low Risk (No Failure)
136.09539069152135,8015.904115457861,13371.808315398095,0.882142314225861,52805.09238902024,9983.986739450618,10920.779428732374,43770.389020524184,45656.506899177344,142.63226202698763,9.03276143446249,21.736935088907366,6468.405676861908,1526.6267166411594,648.343506574598,0,Low Risk (No Failure)
163.28549702568355,5714.444991240879,29312.0582257695,0.543790189929872,54165.92996875424,11570.021932203475,13348.025091005482,49787.55406329994,37370.90926942647,250.03176070007012,8.584445442325858,23.778654017360786,5187.427081957721,1285.758836337861,842.4561070762363,0,Low Risk (No Failure)
66.90779772752187,12392.33321796067,7438.373145226632,0.8131512009875106,37915.29662316499,22440.11253485905,7770.297670526181,56498.82996802469,49759.61289528317,260.1536082234737,8.552643968315987,23.558472998621333,5078.999309252766,670.8245412641004,1413.569160893126,1,High Risk (Failure)
92.60263346043025,20989.100315549276,9111.790506097437,0.962264078035172,34117.76391491717,26613.93725755392,13891.547122309874,31485.40766766862,61989.82651870993,213.52824095395687,9.856161350697912,20.429966909448996,8481.915341758151,695.5747821306519,596.5498420360559,1,High Risk (Failure)
111.89270037624289,26711.098288899444,21367.230402363355,0.16673324780534327,58534.189443735624,24018.213676389507,14255.723405924682,36580.19590893069,60126.138805670016,100.20244594738512,10.932129901049823,18.704721764046326,6739.7413989450815,1133.6074297640882,824.674273417593,0,Low Risk (No Failure)
71.47390221562416,21027.844059212453,20841.75265676374,0.7533775452463684,17104.20062150248,18164.96075417033,11389.55903876005,14249.403897575543,45093.946766479006,284.7505608567558,11.241499373266771,22.46768763408961,6416.85703400278,1285.1837571019287,727.5745512086743,1,High Risk (Failure)
145.051544429877,17631.487963121264,8844.05120751572,0.9415362460384926,55506.20780818516,12048.775131867522,4643.126049634051,30802.043003547737,65894.78618072871,168.898905150644,8.635667618479623,24.61678230276496,3965.9141227747227,1978.9048881130448,746.7044780324547,0,Low Risk (No Failure)
212.94701263285108,9979.322490082528,22808.204781475026,0.026338701748552018,42630.69367025634,20862.037397975295,10131.815761516338,23604.86958047033,55686.485060820436,259.1932337200693,9.333549839067805,23.11788800292628,9089.547044894698,647.552552130302,804.9526028018895,1,High Risk (Failure)
80.08803436202454,19696.879344072713,27635.69922276694,0.3810706764344223,48105.9936901592,25476.720620160173,11529.3138268003,56433.58833870905,13540.998655824505,234.92069023199997,10.890762654217722,23.389708960194152,3688.0376982331336,1163.097277288912,868.7565758271319,1,High Risk (Failure)
104.89613011806655,9594.09422953684,15606.446676903652,0.7748097208422537,19330.98558709072,28282.38068461211,12373.938441373095,10233.942586841786,56431.01821564574,158.4041654976518,9.493438480185352,23.328794302516386,6668.866949220022,1589.589648464018,1479.5212463244543,0,Low Risk (No Failure)
190.65591031545233,8716.93968758195,19592.272969732596,0.7510329615376086,16653.609448059935,8758.753147980757,5303.048138142598,37892.860022287496,23041.416367578,164.66811376563993,10.866227188683926,19.485601164955398,3691.583618318642,1759.2421345021971,1428.7284185823505,1,High Risk (Failure)
77.38920629995073,15609.429868014387,16982.009053348844,0.30599640875723655,27656.66807363084,11575.63082211418,11496.48365398213,24178.232624363278,12890.852329508627,211.87674329987254,11.8717871416087,21.69657673325345,6917.139280443089,1091.6220105125944,637.1621150715124,0,Low Risk (No Failure)
105.7001581699589,14446.598367422162,19052.286350730763,0.0009989922669426665,20653.84396993184,14025.55158971597,12060.508395667835,61145.819961316665,55170.255256103366,262.1268783017902,11.294182585308224,19.493562673320717,6135.899403074181,1976.5097715213517,921.1439566169963,0,Low Risk (No Failure)
215.38414517892573,28060.28341389094,25969.553245234565,0.7758970823891844,28729.274151908066,27890.59452666962,3222.3157682628666,31156.598987564455,56299.864892055426,113.91821888824984,9.50620684306121,24.155349263869013,5201.226577353282,1320.2985708630501,1328.0335246848867,0,Low Risk (No Failure)
168.97885663439723,26759.893698833675,20191.15020635436,0.3826411550655715,16757.528046739757,28302.54899935911,12050.323063452584,56950.42106115418,39918.625053377575,169.77703200643674,9.56319993562248,18.407649139034202,4483.122635868033,846.6929566765168,576.5462246493748,1,High Risk (Failure)
147.07178600059234,18297.762748774618,21357.07154976723,0.2476868784466013,39016.51680368272,24100.036400696048,2877.5017487947744,28897.956378389972,37022.879388740446,230.65447692141112,11.873145932440444,20.257755102630874,5702.990410340604,1475.0954674350578,681.3735189638959,0,Low Risk (No Failure)
110.06518307418372,22248.97904698589,10431.886973478933,0.8688334727016075,32990.44863940118,28828.55849434458,7682.132976841615,41069.21791919246,55021.9905482898,285.32856776659196,8.964254074527904,22.018504247621934,5773.437413214073,867.5636356674602,1189.1221547756843,0,Low Risk (No Failure)
61.25465452350669,3543.8116098789656,23616.775862569957,0.8134154143208688,56302.21741907377,15287.121903413554,9533.77142303947,20871.674516206884,14147.116687075566,215.38215994897593,11.129799015722561,24.97608669267205,5656.039906081382,1514.8547178219223,836.6306077306292,1,High Risk (Failure)
118.99314733836724,5276.137268719207,10395.333405066238,0.23873844536259992,36248.26229855104,6797.383512862674,7882.718228563081,14974.11784744361,53321.12649569002,274.4973030516785,10.154046719711769,24.70546940168557,8420.551166301184,610.8852567342348,710.2076368531007,1,High Risk (Failure)
181.44084520350896,12060.85548719058,12960.274244207994,0.3942419878349164,31532.428011838103,5979.342677054765,1381.2104268848502,29973.967407880144,57990.44286787548,219.6392828262649,8.098178170393716,21.09719052117807,9658.492559865628,1750.405274812902,825.6872833536406,1,High Risk (Failure)
104.03826896592133,8974.396567235566,27960.559817589616,0.6851612006141862,28003.964831161444,20822.14750051032,2747.4440501645454,58043.86737654291,22732.718086102745,289.0333128072217,10.90200872084666,22.57044818346472,9422.885467083572,1739.6097033558988,748.3446066980739,0,Low Risk (No Failure)
155.36801852175205,7237.471634767692,32978.89897218079,0.02429270339978029,32225.57645630475,6871.800936720586,7549.363793353877,69450.34763055274,36911.82480392957,212.6005048736821,10.205391063785997,18.826554575858946,7000.633663001765,1539.0111733221838,934.0216841869441,0,Low Risk (No Failure)
204.97776034119954,16726.699293011294,29342.225081019686,0.9899349514629996,59291.758248710306,5895.589689264625,12993.644655920614,53123.29852157406,39718.52265940723,132.3193259421655,9.375915948293946,21.439560530653985,4489.827505190842,1338.9301221300134,597.3154896953175,1,High Risk (Failure)
148.1371792974623,23814.967427272684,26673.83931016862,0.5281400572737537,53093.37893447565,6850.499756397353,9562.241490092174,66154.9858533224,57414.26483363442,155.5162375819577,9.594104257964421,21.806811687412434,8044.233486766803,656.9754867214335,1341.5294590437338,1,High Risk (Failure)
64.03185517137115,1163.308069693558,6197.965677968278,0.9718470542807885,24903.047163968782,24604.267170419746,5779.735192151613,33919.66398646979,58019.42962922041,289.62394709636817,10.775387092847707,24.092895226125563,8814.957548938699,1202.0989840290158,520.2291603481113,0,Low Risk (No Failure)
90.27132678245678,19608.595594683382,11514.660004731948,0.8694591028404044,19368.119766972148,14466.286781309154,12311.347551643645,52231.31473893306,15513.721916038296,153.29268496444917,9.51239431563919,19.49695302400094,3522.9686416005306,695.403360264646,1322.1959952267648,0,Low Risk (No Failure)
121.87765540808599,3514.4904602735664,17823.2576256968,0.2895427477937049,16041.581296217872,25202.239660109954,9658.278583540452,48218.67046434336,36266.72074752141,287.2126152004852,9.528738079540187,21.997406269892014,9095.93918806039,513.6551093256963,1298.4838237117924,1,High Risk (Failure)
96.05070879219761,16593.071729138173,21716.571347901317,0.9773203051129767,32287.944984198784,12506.745896295055,6466.82306755333,10850.21737771754,29339.395659232167,167.6547261401088,11.820264783714766,20.061189856213613,3447.7431178379047,937.5949757104088,576.8778351615881,1,High Risk (Failure)
61.112340884990516,10954.989182869,23022.193233511804,0.8580136575683268,27810.855860975003,12086.146487636135,12520.344997571025,47688.60854692483,68085.93362430936,245.77949862515277,11.784273829601236,18.22153384723271,7198.607154099405,1049.086563216827,689.0036655206045,1,High Risk (Failure)
171.36476746799568,16941.80039973602,20041.894357859732,0.18077595484072684,57669.3177816959,25066.921365939248,7170.524126656791,22648.114175739138,50828.21573064228,214.55282369441613,8.182985588574581,24.735576365468102,5054.019380644191,733.0780982327883,560.1751839871797,1,High Risk (Failure)
139.0102464731086,27134.151073303314,22253.377008180847,0.6340880576141181,46061.68838068863,5231.670736415751,4013.802762689341,20828.503138306653,69286.51924046321,102.07866806540633,11.181784580239631,18.135543076163678,6461.728068768651,1942.3590271836124,837.5730732276826,1,High Risk (Failure)
147.12885194474808,15325.628224161244,16803.444596709072,0.4674105002574649,44736.35743173878,5448.836774980977,3059.6755780493772,11318.601572408548,21230.054213150906,239.62161078767605,9.485361830893083,20.480199425298235,6577.534792943905,1972.2654958879573,819.9689158633714,0,Low Risk (No Failure)
73.363986348803,8313.277472758813,7324.618704072485,0.38959524843862814,24332.009119635375,19694.221691582396,5682.763271388595,23504.005948874612,37509.37750751758,130.8243968425285,10.085326432089746,23.272788885462276,6279.4701580064775,708.8036848767764,1285.612584749138,0,Low Risk (No Failure)
170.0355267888897,23822.298182054827,17759.2445090346,0.9326170171703337,25065.401914790415,7401.306589595099,9836.213097267515,40592.99884654038,53766.81870664167,148.14476707375212,11.434053231099341,21.617085061955038,8566.853355457863,789.1325948626077,1338.911622349041,1,High Risk (Failure)
89.65282872459431,26195.23177871679,31946.875794884905,0.40423575583947935,56038.58609384515,14895.920218922396,3906.3297037104267,56772.12511559763,22030.86104612506,119.16764581305057,10.231199023342578,19.929994850775095,8012.397318816415,1325.138075561165,1080.8587772939663,1,High Risk (Failure)
63.58814226592882,11157.8987494105,6115.258641489379,0.9499609008768916,55915.07682973354,29344.086250317916,4095.519878478053,38609.54238609011,60244.538192705215,245.54066446227714,11.124796388999805,22.170438965012153,8390.454437492277,1490.5826582888149,908.8589448038638,0,Low Risk (No Failure)
191.58757978692455,13498.508822570493,14388.368520450755,0.7212540974297396,35613.098806596274,25790.990649866086,10795.179196599267,10305.341945696951,35885.73394258556,252.0052391083386,11.146618039437872,19.17563374886083,7756.411109382162,1079.4035569165071,1015.6537444187628,1,High Risk (Failure)
217.4364236735725,23639.780165948006,13011.828207180806,0.0835822220003557,19940.00527758264,21202.760221907287,14118.411521716589,50444.78738336244,45822.243855668836,173.69070114544024,9.290222268035361,19.73940920517327,7076.1899483346315,1855.7050052729983,704.0755339175453,1,High Risk (Failure)
167.63247907342367,21887.769794474472,34229.52911613243,0.6456906684495384,38546.11838579909,23646.988633019704,8126.224676251479,26199.20965200645,12240.77668979013,237.3412185902231,11.52825757987572,22.449020384884435,3363.471239193611,1468.1015865552108,1124.924131463522,0,Low Risk (No Failure)
67.43206603519964,4517.78694216049,25167.024494018155,0.366303145262339,19836.213178590657,11993.268670190375,3451.5507701140064,69009.77099105978,32838.66543756608,294.29141357525305,9.285680964627868,22.0425878227227,5842.932066246841,1390.6542170599332,1091.6173712395055,1,High Risk (Failure)
68.69312557166461,6123.787111112851,19276.775324884722,0.6581974082133667,59852.76963357583,5482.843874052189,9014.680571915433,62207.032288436305,31093.74505665155,282.50399424659287,9.025258259997484,21.561201821594114,5112.89375049776,1806.7261556990754,1497.3737268480054,1,High Risk (Failure)
114.74121601790318,3988.209109498498,20075.95052771225,0.7542018658853505,49022.750040249186,28794.366514766592,13123.682438601221,67502.21397296316,42236.64146939811,180.8215416601202,9.140452098517073,23.578835996450902,4582.754016406919,888.7419470096195,1334.426250303644,0,Low Risk (No Failure)
79.30173937609612,2154.1166927339236,17112.698314350397,0.26459103476872914,32682.305751783017,23179.503698649478,1906.799046759714,32293.11202261915,30591.644048037444,207.64773244482905,9.450672434921346,19.081967839578233,3337.0864997523518,1810.241712379362,1346.0659327135872,1,High Risk (Failure)
188.7099532287208,11290.525979489088,5485.086198635592,0.18517593884505912,48718.18102489967,8360.153172194727,4448.177139197328,20273.788891800807,25905.500139552336,283.015814159975,10.910660550659895,18.045329739840373,9899.855150777446,1815.8800311674697,673.6380353394474,1,High Risk (Failure)
130.26397066139972,10481.320907386153,33696.4672618762,0.6942318788231372,50182.317381449044,7705.510589185134,11636.603294352915,30552.8358705454,42624.424521995184,165.5109872720497,10.114663212927773,24.713906813498784,7328.686053910132,577.0761163345106,967.113442229292,1,High Risk (Failure)
149.95020977032402,20058.732187561804,18687.201321600063,0.6300938494554116,51512.71705549849,14795.019273116543,2489.004028531113,12900.574386283424,17652.26058138205,163.41353946369443,8.678390019498229,24.27151430032238,6322.003523800906,650.1133743961059,990.5165976390066,0,Low Risk (No Failure)
131.02711272102044,28920.759431441234,21129.453919630374,0.6708577033306954,57266.147529379894,17485.68992494607,6289.872596991667,65631.57242584694,52280.58901062071,291.8210184159377,10.470869365610024,18.478330168637182,4788.673922721414,1393.4809111154545,714.6428575489243,0,Low Risk (No Failure)
97.90933198506379,18580.282624402214,20368.542291506394,0.09155173575124609,29919.48916629306,21082.50415090271,11809.639368949594,34735.43166520822,52386.80461868134,297.4991302795088,10.32165687286639,21.15804145660652,9269.604340750942,984.7970425367109,1303.087987922938,0,Low Risk (No Failure)
99.25585754901135,12787.418820610095,19561.171136136516,0.5738275735838572,57566.75375832341,15403.761402440181,10624.973213765168,19170.141662959046,62836.89782119781,284.25274246261915,10.609234681468958,24.46838337606665,5862.7616612317615,942.3868450829204,1249.9904939613866,1,High Risk (Failure)
214.89052992812142,23368.371153288652,14715.488922375345,0.8345719568709472,56430.9798526363,18801.086421810447,14112.779333293374,30764.385506488343,57274.51067081962,114.96968148272376,11.957163591825388,23.787468227581318,3411.4422861217267,750.2529487972804,804.6841299375332,0,Low Risk (No Failure)
91.35725798706324,9025.86982658795,28255.723078817173,0.6707195257070481,21464.131428245382,12780.951171618366,1744.426013470826,14978.53566342267,17267.711024345273,164.00626780480158,8.91643713992782,20.67019234982514,8838.07880941717,1351.9827193267392,1348.2966626372033,1,High Risk (Failure)
114.07922509624572,15071.683217195328,16241.930676072796,0.8480279026572813,55721.32891549201,13227.732026568305,9486.35797302697,44984.6616255217,34732.3337511066,204.74040198639676,8.768131009732471,22.075906760542573,8472.529150514347,711.7657241619473,615.0213090526433,1,High Risk (Failure)
85.09003285068891,20473.842411150086,24295.358506096873,0.6989814026107545,50664.69335819496,19961.98219541797,9071.421464337865,57273.3442465404,69568.60081553877,103.17802315774382,11.716600728982288,24.36987622870354,9945.683170761899,900.390574527923,728.3756202384593,0,Low Risk (No Failure)
99.46537852886505,12189.923958247164,26720.263764846615,0.5000623265902081,49153.049304521905,13790.011718946907,8776.117687971668,36948.469362983116,61763.797629358516,198.0970239330848,10.240258722216412,18.12727594678599,9702.700531763956,1328.0722387800552,553.1252860326285,0,Low Risk (No Failure)
212.23851362828594,26153.284534345377,26100.22863556797,0.46735868461891905,43269.45347248115,8070.758722992519,13208.753565493536,57865.147005754035,68537.89690905414,288.63254418169896,8.551439538378961,24.04343557513139,3456.168333587128,1092.111534389377,979.2576259928467,0,Low Risk (No Failure)
115.29273373933009,6232.290840359742,6957.655673750178,0.36533926361070046,59123.722573378174,9648.19865621205,11309.264948000171,48673.713476175,23687.915954964003,270.54578733535016,11.315400516188369,21.24495104669378,4840.994930802386,1089.438893437665,1386.014661486803,0,Low Risk (No Failure)
64.0309462334767,5458.7300509846245,26258.612013053928,0.1985829782260834,59005.133605970674,25683.174269623523,9088.944663967633,61576.687879918245,23525.22734468813,141.3551686040065,9.994256168379671,24.22841273481914,3228.2037402707533,1728.571968649993,1184.3577461691443,1,High Risk (Failure)
103.37540060225052,20890.411977507476,21327.102728312522,0.868693894898852,49420.02878750147,17475.98258987159,6413.27154230578,14139.612153985167,41381.35882411904,144.66187554280845,11.318841342510918,22.420214659017127,9779.097996348803,1043.8848587555813,606.7631987472646,0,Low Risk (No Failure)
120.952295203756,12208.317963053498,14200.058909393492,0.6883531995402283,42532.57745696314,22640.93235920599,7172.240426848414,62671.61072297735,55321.86622469625,228.65945199600745,11.432630379182203,19.823923459105224,7545.347994306861,556.1171717833296,1356.3508320414821,0,Low Risk (No Failure)
82.10004690243956,15389.101856932342,28139.40899675042,0.0827475038898714,59244.8354158295,8057.406658988266,14430.257742233152,65903.22379650208,59295.94146021265,280.23166480509195,10.695448822384728,19.233625046160036,5071.154857117745,1018.8903569041886,817.7522394479982,0,Low Risk (No Failure)
147.46371523004615,28040.875372943174,13785.068673807813,0.09793836538285594,43127.41078366649,15930.374225116713,5138.19555436168,34830.652107843714,66925.46005317054,162.63224116275805,10.814490848234012,24.842198142250997,4696.827370890976,1245.7332897271594,1063.6944482280371,1,High Risk (Failure)
86.28252766895886,24822.666330509535,15924.584573138165,0.759090961396027,57797.94480648736,17393.81571650887,4141.317959926002,30443.125978420314,29519.129674458305,202.1175728182111,8.150164340584636,20.400947265984723,7956.171835148209,1462.706702590403,713.8976458100369,1,High Risk (Failure)
60.83673816686604,6787.5768609822235,34246.17600293729,0.1570588840991387,24694.97942003051,9249.001563904361,3652.0227619630855,58666.44478082126,28920.843335835154,294.0585728429136,8.891216962888736,20.603408434807186,4165.366577934305,1375.9001443995808,1317.6534936674848,1,High Risk (Failure)
82.00335106335892,27483.660902098844,26827.8002991423,0.07914466827820943,23311.25832723924,23092.610649175767,7476.190994549858,61825.17100420507,25349.3853979961,223.66570536047712,10.233912269862309,23.75189967642072,8882.042488474051,753.8158114498739,807.3420262617205,1,High Risk (Failure)
94.35134199413687,26978.550940558784,12524.12397502689,0.5948252892737712,22414.914907220318,13922.934239829088,3017.6268340761653,28867.09160382371,27722.655710521645,234.3984442274811,11.474243137476016,20.14019697345966,8362.56287547209,1838.1733404210527,1244.2987826140472,0,Low Risk (No Failure)
134.4058134753456,13905.541828035302,33073.994945878745,0.9528200617835816,28909.296991486917,11871.672459709058,4314.615284397621,49744.591141166566,30565.468819437632,199.44181750792825,8.668605632591273,22.613914475252113,8512.758053860092,852.3393489665864,1402.5436244522132,0,Low Risk (No Failure)
148.3050942039177,28346.500738062936,22271.57915993613,0.10193190678057007,17019.03583781699,27468.980649499368,8554.325152290403,42764.72993887866,38887.89509001079,108.86649600401599,11.197816474748674,21.05145162693384,7039.713794490823,880.5666389700006,1345.3479825677414,1,High Risk (Failure)
77.28712950022513,28052.540419448676,29397.86904051963,0.42892905901691747,36254.474269273895,8147.080973906527,13807.32122954878,36386.97030944226,33654.814837465994,253.41696656031652,11.116534765330158,21.090362360697895,5207.5173442817395,1203.5986896471986,1438.596279459763,0,Low Risk (No Failure)
174.42000317070207,4179.217637699752,14966.832921988516,0.27320183167298207,26671.76400858882,26286.36035445042,11450.171662309283,30088.246604905,29178.48284425387,139.3990898053556,11.88461831533885,24.419255933702537,4338.847645637148,1673.393182513621,1258.9885745560298,0,Low Risk (No Failure)
87.1188394697748,26025.829076077534,33056.534305126246,0.6411996332321481,34805.97170779514,11452.011533948018,13082.943611346147,11802.268785288734,58157.191147061865,254.69197700260935,9.505863619444645,22.04959142812265,4515.033791472935,1810.2080839152613,703.1815437810062,1,High Risk (Failure)
198.58818332398963,25578.881358587354,24316.037826653792,0.5654033919505043,20244.600947183888,11119.822660394268,6697.594425992099,66551.75471590784,37342.98072925216,257.3035567766817,10.526335958063969,23.409731407253084,6405.4589168408,999.9976810570506,1255.1866509300353,1,High Risk (Failure)
111.0004004691312,13398.713805431647,32729.490650222873,0.035469585341666554,59381.2435412348,11270.996493042863,14574.054038739494,25509.711732108353,60803.77850246553,147.12555125710995,10.750632556411869,24.04872341971485,3583.6273518422236,895.0162925137172,616.2845364267688,1,High Risk (Failure)
166.0875506885476,8099.196317050051,19994.66773245767,0.21095271925275338,42109.58650156982,23411.29463549501,4443.903878318581,42560.68763748836,46852.71127247942,110.98508462327888,11.497430283436138,20.768460704896672,7643.767594257708,1496.7336036446272,528.5482290539148,1,High Risk (Failure)
180.54050964143067,18986.810619872493,25312.459158533242,0.3114157538811587,21624.110749405907,22705.270939704675,6679.400340316413,25641.84154461407,14313.814990876243,131.99384340709915,10.455841844753625,20.883563947052433,6971.062485138304,1306.0375030917448,769.4898641433253,1,High Risk (Failure)
189.11447854143898,8219.362219109309,10355.987136191445,0.2856586695828828,56297.6614091056,15870.080112125563,2485.313727853974,34461.81115295617,34766.179029176674,170.0346088500246,11.682926830248029,19.243616837899815,3367.112929154063,1466.7090462645506,526.4675471685578,1,High Risk (Failure)
185.8045119014453,18427.75865492742,17850.283833048816,0.5618138803383087,27369.82912233298,13840.687377262066,8266.682048176448,61773.044010430596,49504.421762733735,195.79917576891788,9.38513975694654,22.009059659462626,9315.559681924922,1646.5033499774108,1322.731951195336,1,High Risk (Failure)
216.80521204567634,11506.51121000594,34724.04067837814,0.39825640915701155,25112.92398772641,25530.75531673163,14165.550056038408,21630.695839093532,37024.95032403065,282.50481707704523,10.620020305476542,23.273647254830742,3484.159182951036,1532.7207453581595,636.9402781363442,1,High Risk (Failure)
176.32908185846242,8971.974089455543,17783.004619425807,0.8424308021504471,51654.163238816654,19626.05120361856,9101.520073919797,39539.62901108271,43897.09393714414,153.5768610316308,9.85155709435801,21.40455092938326,7490.932675527027,1154.6079111764836,1209.9737174181607,1,High Risk (Failure)
161.16514458202238,24376.805690861678,12642.76385599536,0.7108756275835424,21396.449102117524,27818.461835776492,13743.801783051815,58860.70358538833,56797.52969159896,128.08803854538348,10.353288681599562,22.163319160900798,5710.612847242639,1295.598004866304,567.5157692991721,0,Low Risk (No Failure)
166.69558260890528,3615.6753058070867,10213.96571405719,0.7322175600528613,25719.632377311646,10689.004077383788,10017.951232289606,10784.186383532442,35640.48746769965,298.57447108671386,11.237176114085301,24.15315253469459,5477.968985848882,1599.6382363824237,1351.5778197369518,0,Low Risk (No Failure)
84.3239765005837,3857.8586909753294,30688.02960572244,0.7413949722797497,50036.07543608472,20411.97800094985,5646.090546067052,55680.861922051445,46163.55672743643,274.51541214675797,11.297250243002312,22.884478942067286,3223.1440719103052,1285.1238076350342,645.9682430742786,1,High Risk (Failure)
214.4024591127155,10667.66730538032,21814.204465205054,0.6675288182241695,17781.706223000427,18024.903149645423,9559.291141241845,61088.62442814758,17751.18459664461,231.72504423525092,10.013405127451758,19.644433313076146,4787.618583976028,1733.5093576695385,799.9525209894489,0,Low Risk (No Failure)
176.93135439691676,2162.0035040997336,27473.46737077612,0.8537631020019776,38411.50130760422,25336.31438076961,1735.9584230536916,31976.432745051392,32779.60095359875,156.98956629126621,11.4079904999742,21.2645576988157,7550.00962862198,1814.2613775933191,779.5947006101396,1,High Risk (Failure)
153.40364488225788,17972.565389785548,6698.449194041703,0.46619103632893844,50885.20140343396,6823.947242864091,12620.406030887592,29190.340588585797,27016.996510765817,271.8830453408833,9.49877043040458,22.204455910047464,4641.835948108674,1091.5346547385154,625.6985553637704,1,High Risk (Failure)
191.91544281672785,5061.299551892642,25896.170671636788,0.6672596459823491,32462.206392697073,18723.737751165987,5193.38853166636,37480.93709470628,17185.124876356644,220.05773746388888,9.182541829355364,21.342389246010143,6364.657608596343,1977.5053355773507,1123.203351476146,0,Low Risk (No Failure)
135.47837400295026,9445.476238770007,21853.93557986414,0.12369183206737921,25388.40988209404,10365.204793292542,4110.786428994985,38149.34683425863,62368.37159733065,131.17698363934488,11.466731855625781,23.716748985931936,9438.01316078748,1470.8038373935867,518.3272739503791,0,Low Risk (No Failure)
72.19827487577032,15612.775106946932,26531.100851280105,0.7083729960227263,35306.027401445186,20581.388122315868,10687.735752009246,10321.142251851315,41389.19640803472,268.75469119160584,8.666557295266399,21.279657057073486,4636.27341081298,1141.5770372889253,561.4071985230297,1,High Risk (Failure)
180.61889323358608,3604.946824590437,9909.255239837712,0.9164129181004277,33342.369144805096,9802.174558900604,1302.6060485170292,41666.07350865084,16600.057623803714,257.12540456609577,11.965924873226136,22.825918238124814,8851.956425197437,981.5092971245966,896.316856989596,0,Low Risk (No Failure)
62.350942184792615,18832.187422441148,16923.617770010806,0.7056459363630133,52028.49856403583,17729.831186448202,3852.841247836894,65865.92931435576,51574.03363234182,108.73032260955684,8.12597536030215,22.091272579891253,9479.127106813408,1888.033857534717,614.8077613247154,1,High Risk (Failure)
84.62334501437681,28369.225084148416,24673.319053525403,0.15854153559161044,39085.770161163004,22792.019241534683,12688.889005517778,55245.58949589172,63968.74375355293,107.19472993987634,9.27636941716961,18.473174697430075,9039.627427907084,1369.6565018887409,1005.9029652524404,1,High Risk (Failure)
64.98385484694256,20224.28131799241,26996.144148589297,0.9614708845247492,56471.653950599306,16129.688643493613,2228.0908501892122,29373.961119441632,26250.642686296393,146.4421820485481,9.737546812797602,22.886911282910315,8857.426145539119,1628.0627687050878,1244.467681953352,0,Low Risk (No Failure)
65.43135657372781,3594.7205615012294,33590.48528121328,0.9682983146601692,57471.211904628275,8933.0765446912,12974.246501658885,16234.986116326329,15748.09099603424,238.88332245213022,10.146423365414302,23.03643684804711,6274.927478102858,1188.4480553580697,1177.7696574769968,1,High Risk (Failure)
91.50811271254854,27802.33461043714,34520.544505890815,0.6315369097426604,57952.32128046508,19006.38637502893,5201.55116675326,25324.38642004145,55569.969812654526,267.22132685108625,8.878911836063516,21.042234973949327,8061.389178919909,1373.8069677473368,525.5111902488877,1,High Risk (Failure)
190.8456527771112,15589.105407876663,34607.41142654637,0.6703200658307816,41871.00683478423,14741.708002704141,7740.150414981133,64976.620433772405,61432.757564667336,159.09024322436022,9.93417141322593,22.053061066878993,8133.08004149473,1003.3365133203927,1491.945406003662,1,High Risk (Failure)
157.23788718061746,10823.25571745851,6200.39391605373,0.6901313479368921,24002.188491913454,18135.30177385016,9648.196658457942,18684.345895643804,26968.002853731647,162.20662156020074,8.089807813525573,20.878991226951346,7098.745044752763,1694.2729313404948,762.8649106124417,1,High Risk (Failure)
63.90412504904609,15678.055728144685,16592.46685491744,0.1517066155038984,48897.45272090866,18726.323496441728,1887.3885481931175,12524.088535597402,45301.959197516226,124.87164427363275,10.20319570903953,22.648480882154185,5661.846174940277,562.9068045806775,977.245638390396,1,High Risk (Failure)
76.93989091410069,1369.937911515486,26713.856905243567,0.7457977034187242,50601.52344939324,18692.100156633584,5373.436766934416,66106.97447136336,21567.123673546408,186.57230723248625,10.783260005188682,22.524543413505285,4585.81271232599,1990.3567236344218,948.8430521706264,0,Low Risk (No Failure)
163.23497213514622,11889.460038600884,30050.898838005407,0.4735085877410645,48002.27817142526,13716.685255293696,14340.687775317934,50961.36274576988,30385.09772174868,291.74058710878876,10.169003802631986,23.924269381570223,9408.521028009694,562.6341379064085,969.7325820333068,0,Low Risk (No Failure)
165.90618122192183,12341.675080298395,32285.766780869886,0.4540652563320121,57919.683303420185,21713.001209706912,5844.0231169118515,22769.349139129095,14819.698250857862,260.6268713598646,8.762742941749465,21.65243086575613,6629.912473725506,1873.0242033005202,1153.0698342609012,0,Low Risk (No Failure)
168.58719306761037,14193.572528417992,9677.555289884811,0.4397685038881436,21355.3286068759,13406.596991562874,2140.7558658491557,57941.836905067445,39274.96065064134,159.88189857349562,8.070229919315821,24.27925943906437,8491.413293454703,1776.3683246154353,644.8957535154302,1,High Risk (Failure)
157.20717630423013,9780.478719887047,5160.174259090656,0.6454418331834965,50345.02638835077,18439.12041456785,9842.962658950186,59494.09646362801,37043.428203448246,279.75468617034835,10.595469172266567,19.647032834498376,4075.46336341064,1366.8352825074003,1259.2995351320606,1,High Risk (Failure)
199.29254800736112,6296.128777339933,31259.87247913724,0.23665537947971382,29690.22487881162,14648.238423281522,7825.383897089945,43335.8471745981,24269.1099024043,279.68520060559786,10.031675488997195,20.390915540951468,7283.591540158194,889.3947691366789,786.0399194676897,1,High Risk (Failure)
100.74729952736818,29689.118408085164,30738.72366192525,0.41668038043143796,23209.200847010114,13757.576380324359,10288.44137381647,26103.727360740402,58015.17287409838,281.6472987553043,8.121308765470937,23.17313652487635,5186.751017903454,1909.612569369711,998.4152867767552,1,High Risk (Failure)
151.75006209972577,2498.06335632459,13659.989080263813,0.30737271920404485,37560.42961911507,14689.400010017876,14096.386178483666,46077.66459397097,64008.383969542025,263.4958945524249,8.030455533361074,20.37198361391563,9339.306583030157,1548.816190465291,731.2498989031918,1,High Risk (Failure)
208.23420767298958,19702.28339208259,7392.902763532133,0.42929491786101326,42462.39970002019,27252.42588484228,3297.5421972733666,29526.46790971652,50063.02309851105,100.83964956810392,8.04937179318431,19.21209139727415,6128.8487533302705,1254.392995058426,1159.1067559279018,0,Low Risk (No Failure)
190.51926090017935,12527.151780256205,25488.847806261947,0.4433200064790801,43677.8541066498,15025.121062084416,14545.955947747156,36059.186332098325,27209.322707309293,204.2021823713173,10.599390947137715,20.85153769381745,6982.816014767213,800.6965386634971,1458.8023146253413,0,Low Risk (No Failure)
91.94780514533755,8508.223969001048,32366.888659988,0.3042045181350037,21709.039592792247,16129.991156765858,3996.012623964138,12977.436050768045,25666.524451468533,114.29110495299004,9.281565275660139,20.087640600151655,7789.785047624891,1093.717402880441,770.9988271328142,1,High Risk (Failure)
170.7774275937693,7768.491814285682,15685.008959433291,0.35902261669008606,25201.0602000831,28858.136641969588,8776.310531762401,35005.243289596714,34632.90105987534,181.846471042593,8.261701547669087,23.908726659217674,4158.677613556517,1158.6716893747152,941.0607968850203,0,Low Risk (No Failure)
73.36869400171037,3830.9440555193196,28517.495290376082,0.8317211202799181,19236.60385274506,14968.732731276465,4076.7024081196314,48729.56154168626,28588.602947827138,153.86426404262082,9.988939892847693,21.86543786775443,9054.238342292316,944.484142190729,1403.890516210039,0,Low Risk (No Failure)
141.66919824067716,4272.886196670104,20490.194565149795,0.5452110788174002,52572.33614461706,28077.3611470923,6120.831645488223,54773.22528849856,64439.0031987726,244.37008803494794,8.116705881057559,21.906711803603663,6383.618935437824,1787.1296445671705,577.1604169846305,1,High Risk (Failure)
203.21883851304582,26367.665131180267,31124.31274326854,0.5884438276405232,40116.42277982949,8041.797325096882,14409.194281699807,21684.777176571577,25794.22832617318,162.91448510378962,10.185888370856746,20.18263561326974,4249.42699498607,595.3435413871986,815.4678685644212,1,High Risk (Failure)
67.1994913976679,18752.601109353644,21236.61884098682,0.7508777765144898,47277.67277515726,16616.007762508518,8040.733586631826,65690.57177033256,43682.84789022082,199.66641647984375,11.98085845566073,24.694480879792298,5323.48671906386,1029.0613214211396,1394.2199711945905,0,Low Risk (No Failure)
115.6952949069261,7875.041344051164,24856.716641027007,0.8649685594304802,55777.2285539352,8602.129026286566,4555.3033861091035,41392.379618117935,58281.087787183125,186.1316157165096,9.9834749071243,22.162031899399565,8413.020010283768,1642.1123617815508,879.3399100804813,1,High Risk (Failure)
189.2992607303067,21325.105220072517,19763.49971257585,0.008486012083443017,46584.300950444005,20688.4122486344,2151.4114815168896,53097.249289714586,50240.04075923137,275.3957968207699,9.673899844600188,19.42984964236187,8461.7664746202,1792.5612643964848,676.8162815544982,1,High Risk (Failure)
172.59196474064817,22219.452908971394,10052.2384703009,0.438737207510412,46931.063724521926,12845.404864974204,8801.83595428046,37535.50078465072,35631.0056258383,286.33487964683576,10.915774768322208,18.61649781912107,7786.4722493481495,1036.4089904398775,1216.7280267157523,1,High Risk (Failure)
203.02281328815323,13695.186594655725,15172.6283978804,0.1170414826884435,52918.0177864119,14256.369598060752,7670.3759251545125,42390.606158911054,63296.649828624766,169.27579746009167,11.602379249622036,22.45770780413629,6168.510266454957,1998.3379447975246,712.276435763667,1,High Risk (Failure)
99.79428361402078,10556.381999445905,25639.520645710094,0.9739407666667818,15646.531163252532,17828.064070136446,2350.4841580279153,24331.723700075512,24520.659324788645,251.1634393329536,9.257303766359124,23.473565490087328,5033.459106650521,1392.1708803578238,1171.862420719731,1,High Risk (Failure)
167.65946697569277,4681.145672551114,10145.389929440666,0.6866598739832943,19128.48228959898,5164.754070742826,12409.728192934135,18749.631051748478,36194.7699692045,106.00022103562736,11.8997352981351,18.50786527940788,5179.736503054475,546.7164020164446,1212.959237040492,0,Low Risk (No Failure)
108.52402361081529,24999.85530694036,19803.328378482158,0.6206369521207595,22885.23808576635,9194.98167907896,2884.787139023766,47528.40720499639,55467.84788393562,278.15850080810026,8.86073216874715,23.684011506442275,4671.888229063261,644.9284766367009,1164.432661897985,1,High Risk (Failure)
75.11087372094855,13522.40575812554,20096.85036158353,0.6793587899216466,50551.20427390281,15361.304645997807,13145.695249709399,47299.68750359966,25944.901450180252,265.8942425616507,11.602960587848932,20.29325744345457,7884.246177446418,1777.182501616273,706.6168803414625,1,High Risk (Failure)
218.40861601668212,24967.473675273304,25403.29095299832,0.8322628859701487,53959.32284535724,12324.9226727883,7247.06346015062,51610.271717484495,56572.20803603991,134.72384989631152,9.928436802373744,22.931209680147756,7203.282633650722,1608.7986306274236,977.9634473630291,1,High Risk (Failure)
186.00785373740467,25132.711158144433,33294.89383560048,0.4715363875782448,53223.52145771938,5536.385307176082,8420.34195738034,42698.41784744138,56501.23445592408,105.47280069020628,8.496711095875785,24.424834343744624,6437.4682969139485,1664.0510174761387,865.7556255764284,1,High Risk (Failure)
114.86874604147134,26847.197280004766,18120.838746878442,0.9824688457866938,25342.754810941293,9268.173293561766,14258.466370693472,28802.48369686407,37427.95869475795,153.55787993411596,10.38994373907391,20.17766257168568,5003.065948058795,1516.8536010740047,1035.9204559019718,0,Low Risk (No Failure)
95.39351069113636,24307.11010444177,20380.642169864343,0.044660028877223756,43851.89079870704,15207.1529959406,12802.969818150883,37325.99596303153,48810.01721833562,280.42044399311237,11.699277660188095,20.346517144108855,6223.664604019381,523.0558073557902,1149.6668718933538,1,High Risk (Failure)
218.58698018191626,21569.587687082272,18511.702292177928,0.6454905391663529,35966.975248549155,25246.515820133976,7088.850321752723,31545.11623552136,37628.67006621693,230.5001802875475,9.136312735985063,22.96304847410655,6681.286238591662,757.903442051293,1477.9414736219692,1,High Risk (Failure)
200.39520746471712,9133.43350193492,20662.20713411999,0.09537380789802752,18419.48933529937,14928.672562996657,4772.436759680101,30090.12117337637,11188.641809656969,170.97095056464394,8.990526901226408,19.638563042409757,8822.487440796878,1667.8264082708433,1292.2760110362526,0,Low Risk (No Failure)
71.64208101827097,7118.126827978562,13614.56790312886,0.7975993494897885,28344.04932096656,10438.279344859178,4058.773581240886,15467.935085157995,11005.36153312069,126.94082621837903,8.177777061389222,22.22234306421768,7364.7636778115,1908.003518736791,823.3744718844625,1,High Risk (Failure)
147.97897004419283,21892.57736454756,14965.20378594071,0.7130392752586318,59471.14795781591,19823.986387432196,3983.7131596875624,55563.91314608444,11199.639520500597,164.77091069151595,10.564641554817554,18.06739896681879,3799.8820358739144,891.0347761974706,503.4719077184775,0,Low Risk (No Failure)
66.36983031132061,22161.289195954905,10245.107463986335,0.15957723278671354,40758.85787844735,26605.904248279523,10228.596612281513,26480.435650290845,21347.998736555513,125.11505292107398,10.437789271085403,18.88627995320103,7755.292623147272,1761.6909015823517,762.4920904379474,0,Low Risk (No Failure)
86.51970831443532,11146.96844577456,18162.86661954889,0.17216764546445096,25069.753121138405,11008.99541221585,8113.130839130111,59340.28807042428,23516.91943848238,161.05726748020243,9.842340900269603,24.218959596616948,3280.6198569538865,1514.0617266222343,946.8545816805582,0,Low Risk (No Failure)
61.73402423684774,13859.733982245278,22717.68973215755,0.28465539349359203,40938.21120459263,27876.960045425418,4227.653523103125,66401.59132186332,69675.72136243276,113.42330765208514,10.520331502746552,24.468380524769174,9098.914630474821,1649.8904892720714,529.9288022511131,1,High Risk (Failure)
85.8711285238379,12352.912179686457,29267.819216533742,0.43200458880915393,49610.8005729801,15449.003726678744,3769.4896496695856,55478.203147639695,19636.07075629501,240.62530893463352,10.426170437483654,24.80354022946792,8823.304466634243,682.032891678228,878.1749596809923,0,Low Risk (No Failure)
123.52240659795066,27498.09732618732,13219.7180141777,0.05967165568249666,30621.326869264918,28452.131487903847,9012.6285933277,18825.371099787997,33496.37839147478,122.60913781081659,10.099790200683579,20.954619956232314,7005.23686509085,1716.8350837883884,754.1811228457711,1,High Risk (Failure)
132.28282859795667,13187.238452418715,27631.27866574729,0.2988202348114175,53848.777514007656,22512.12525124533,5194.2559278657955,53984.246410711086,58725.5908088077,116.92426842851553,11.218892723371475,18.693429108335433,8110.550325896438,1506.0632079710258,1437.4066273632652,1,High Risk (Failure)
123.01830490466536,8691.627152577563,12130.962809186865,0.04321993725495721,47411.04303487419,16927.82579193572,1558.6327956032396,37638.39492803105,52261.65818908263,253.35342315070136,10.591703558666149,20.613790939374734,4550.5831352346295,1583.2505072372064,611.8964177349809,1,High Risk (Failure)
110.52370419991937,11648.040618507472,34276.80013687696,0.48189088605748454,58280.39764388522,8968.729831784714,4351.830185561144,52488.87970663671,44774.21218970993,100.8195068625205,11.341714144577942,20.914182485390942,3338.953480116049,1711.2720762500965,1413.7983463920082,0,Low Risk (No Failure)
127.41712036433123,7911.779108211912,6002.090197323034,0.05337549417726084,41933.088576004884,26439.10350997813,14226.72772260206,41373.05749892365,27649.979410483043,140.88475813288082,8.977315354109674,23.309282262892037,3417.711897577195,1499.474902205031,1471.8943983880617,1,High Risk (Failure)
79.17845877338925,3887.8116926608386,23718.36724284165,0.9111357701300834,52434.16842079337,19022.688201759276,14150.345082078064,45429.49202940686,64481.919138679266,221.38636611540477,10.852767713444003,24.873593599566032,7956.638404985203,1754.8473328590958,1488.9018164197482,1,High Risk (Failure)
178.01316825422265,24024.69745675213,7732.532446401545,0.6885121884095631,41108.44934870396,24848.767177628808,14849.280199131372,67565.90417625892,32386.45040896759,197.99096467907182,8.899126540360236,18.52113965130595,8410.286613196655,1728.325419291699,1077.9494328927344,1,High Risk (Failure)
97.54273309687257,10801.96464982621,16433.279780248486,0.5147764220004536,18008.12489179542,28800.998113646023,14861.439117569877,28711.797096333237,19193.891074358966,230.8768568294653,9.11236118872662,21.956861092755993,4426.878465210757,1547.9280908549722,589.0025881351456,1,High Risk (Failure)
188.42244997646876,9970.402506388466,24692.39402689019,0.3726760954958379,56857.59215914551,21875.274902150715,9977.16600976195,12827.87510144218,17724.18894471829,169.07326294985336,10.606125139576777,18.428683122930842,4146.842129751332,1763.0759157304476,1381.0107486892937,0,Low Risk (No Failure)
97.2735159605814,4068.0990879111696,6208.344882061636,0.9221997238356853,32390.538630025818,18407.59449796831,3431.997444906718,28469.79763474055,11459.729234694909,278.1550901566188,9.24361052105418,20.714994430327273,3278.8372728724553,574.6202336023238,1291.5530115032727,1,High Risk (Failure)
198.72503937959178,1213.3770591370217,16782.827567741577,0.0800413240914406,23704.331625598046,19840.08389180512,10828.327434646613,22894.26969627644,68748.85998988117,138.3353712692318,8.780616528328895,22.130745708954876,4274.287783107995,1097.3144879030742,1340.4968730739756,1,High Risk (Failure)
67.2349872169903,4080.2010000652303,24408.40125011916,0.4651736966566383,42300.6695786081,10030.033671110166,8237.586543976302,40340.029796450865,35121.440530094784,150.48288590814792,8.34877713569951,22.57738192926298,5912.320944830331,1669.3036407923255,877.9898724567522,1,High Risk (Failure)
114.69077627166016,23561.564175557167,17435.624881705433,0.14418946390615306,44377.27791999008,24464.33164894781,11223.959302955229,46690.236590778826,33599.45866560495,176.8819594337129,8.199883156262066,19.90339554609836,7108.201764389862,1536.401221972408,529.9581704304007,1,High Risk (Failure)
181.63645758234986,5893.733713548657,21650.55572615873,0.07810430402091284,39824.103124412155,13760.22362045096,14779.938623635642,17765.95427124387,28778.143609313556,227.51293710857212,8.505492850653285,22.396709585207812,4360.457658871455,1002.4351905462327,748.8657164748541,1,High Risk (Failure)
140.872818865672,15072.412520269992,9283.545504186939,0.07656864182011625,57778.101117164246,24585.886729164275,14576.19681263986,34635.079379427465,65096.83155973303,171.7865806475065,9.32467936130094,20.743865070678947,8028.299242160033,1798.8224248074423,939.5367685921785,1,High Risk (Failure)
143.22616017791893,8541.393167320583,18061.681883840403,0.4911385356958269,40262.56679194677,11301.42321360117,7419.212882146478,34037.57559425039,20034.167727694832,119.72959490957473,8.718836484543841,22.081602729286715,9122.616309778583,1922.8403856763234,761.9201152175799,1,High Risk (Failure)
187.12248711851979,22330.100468013854,28358.040761016695,0.6409522198481755,51826.78742414526,5909.270843680818,4958.226579887144,20709.860798465128,14164.029801541343,228.10569627931872,8.130538745312263,23.3520180748212,9032.106559885753,608.4089145584961,1044.1271674823415,1,High Risk (Failure)
189.74057296126693,10181.470609994974,33609.69352889813,0.7808258334109281,47703.26092783324,7315.61999194543,9030.08603666423,23212.19720087429,14256.170766437228,238.28180927173784,10.779635681153046,24.630383919221572,5896.859322132463,1864.8017632154158,1349.0938684319271,1,High Risk (Failure)
170.25402459971673,16866.701634498117,16532.26792745555,0.004373679100979522,29005.749090039913,12333.68094146511,14125.61803680513,30386.11826729585,27102.485058689963,210.4492049865001,10.699476417372246,24.754892285324473,8684.567791851918,1324.134656878192,1194.6811520083138,0,Low Risk (No Failure)
146.25512843776139,21475.685324502894,19813.96687147238,0.10490438634931132,45779.040456918476,14061.782773300141,5455.123053554874,46727.32754195018,37117.935126009674,232.56224058242623,11.575048709631899,19.91767322419374,4803.490532379232,1936.0862304305253,1482.1511989335481,1,High Risk (Failure)
60.88092786566733,5660.687126538584,12692.551087262618,0.5610487353667037,20189.063498190357,11958.359386582342,4412.86648690382,63133.69742402001,42530.67868385956,119.12198783854816,8.81942573410779,19.44703951129337,8654.191057282362,1026.3307053815902,1370.3163736022757,1,High Risk (Failure)
64.21871591956032,23500.440379621097,19823.772234238117,0.08650926893974753,33446.75700079826,9635.781035118289,5857.875879528533,59050.4611243349,55397.11709126836,227.3911008314889,9.142089806989715,18.0897990161014,8006.672077027029,534.0594753303008,1120.8143764899096,1,High Risk (Failure)
89.68408251249939,26925.218666412635,13383.272667076826,0.734447277798688,32946.96891333947,26279.84925441918,9679.6836893192,30253.96817313835,46838.75351490652,210.26643719017028,8.189300227870595,19.442718423218643,9956.67302607548,967.9654773931209,786.2910054802735,1,High Risk (Failure)
193.97873276322412,9553.002938312065,12048.456885001782,0.3727770457892867,54797.37753542363,25669.064549591305,6738.863828139256,67701.04885455876,19203.732728601473,170.30061564799735,9.528660077037,18.930435482972353,8755.117616704738,567.7824290721818,1397.3559364145967,0,Low Risk (No Failure)
114.83694806846515,12742.413613825476,15482.753380813641,0.9707981492726719,41712.66169712524,26869.28331403991,3333.1675780498344,42876.19096970397,67958.4241676507,169.7621767248687,11.093351372072432,21.932904933694026,3405.577796366511,1738.8876384057098,796.5631177880566,0,Low Risk (No Failure)
94.50802438363475,2191.388583711103,32152.64370164793,0.24580385627786594,44817.022629612824,8748.267238500266,10989.05985251022,40162.29290891862,61160.38984262294,279.7048192886694,11.03949731418328,23.432228908728934,5546.071829357445,1499.1008068822246,555.1281884729365,1,High Risk (Failure)
106.48072090742727,22702.882233417295,30110.233874093516,0.33028701249211023,46371.50476846733,5278.4394118043265,2426.3315911269037,21034.786311556905,68477.35237611519,173.36159909111734,8.278025709865977,23.960246601162133,5988.4456278992275,1945.8790215274257,1402.7699842867555,1,High Risk (Failure)
211.96798612670784,8485.121652029027,26390.943691253116,0.4787022008507855,24276.251319467865,6147.346696876231,9738.541410844864,16323.598448187222,63899.63939826298,148.93831092602818,9.29301725743181,24.164264578609117,3061.175927740242,1758.9300173817958,668.7011263154936,1,High Risk (Failure)
117.75582351040428,3094.1823747204503,31112.324856749008,0.93778763045879,35488.493148630456,7265.07540013395,14012.215856363408,30655.692461596165,69402.03152610754,117.33580842944062,11.377041866727168,18.593496074445646,9571.778410480274,670.5441038947461,778.0498342465729,1,High Risk (Failure)
72.31546710093986,10200.401277041301,26738.94010698181,0.6277570772615966,55132.73058051522,10104.976564819402,13057.55758043538,14360.556966230335,56911.81471512731,198.21507087541784,8.090058238436768,24.387087621656384,8940.805245784852,629.5201666326009,766.4298130216966,0,Low Risk (No Failure)
191.4929514536575,2498.884717422823,31179.100630735935,0.15574693185344424,52205.89828935957,8953.736514238048,9316.160957611179,14306.727440319934,46345.53704083625,135.5139677061057,8.785770849653872,21.399524778657298,8933.952898917305,1172.1218848797373,1250.8600739333751,0,Low Risk (No Failure)
184.92185377095038,21558.10018129589,25686.93233155895,0.49326443410510645,53057.635481045494,17942.916657563037,1265.6661029176566,34898.3785891192,20165.424411844637,296.58041523359617,11.818825969435505,18.183765040266557,9450.12018896221,1079.7375283676884,1009.7414031485059,1,High Risk (Failure)
170.5994662057583,14795.418267482632,20230.51473905253,0.26123420101828443,34402.35719106608,18169.282082882957,13606.06518417974,27227.259692334097,57229.59041719421,113.22253172463732,8.159136890578758,23.760881006514627,9550.078511294449,1185.4331272871123,1428.4009702249964,0,Low Risk (No Failure)
156.98794151214082,19837.124195951892,23374.6852129125,0.2999914705537111,17820.246061588463,22256.484043666027,9996.00817394499,20562.84879614914,37343.211223053964,127.59663427685797,11.318775385019688,22.638399463948577,6884.005005609546,1241.6070459685302,1462.4035203964506,1,High Risk (Failure)
197.0459557996683,18350.876195184544,6823.078051887226,0.5390890052067938,17041.97637511451,16778.357961785554,14912.530042955474,29497.409670967652,33038.11707738349,273.10811651994914,8.360561036463782,23.79780170753366,6723.6912656484965,1745.8142108275474,726.2067399707336,1,High Risk (Failure)
170.45165550411664,22506.48757237905,31662.073681598762,0.8094440438786346,56113.47357803271,19305.264840116866,13535.342708486234,60880.55840818937,35195.2505068505,136.1600847334712,10.994803963153071,24.633237800382794,8922.007494675345,630.6631221571628,644.8486768811406,0,Low Risk (No Failure)
88.74929741923872,15607.863603108732,15484.55546924303,0.4319875924251573,45350.75775499681,12866.795567782709,2590.8744565032093,16400.93164709857,26381.195286173213,213.40040571920338,11.700172807956731,18.928545711967736,4330.864010666536,935.4496422424118,1066.1798303301318,1,High Risk (Failure)
177.1559818255298,18780.370933008006,14443.568711508738,0.02929370500537065,18307.872456120385,14203.755811884379,9024.205164045257,29024.501882581382,56614.60914305999,101.91019909325504,10.067257420930103,23.920941330895396,6958.056126562727,528.8530070732935,1253.4663072226222,1,High Risk (Failure)
160.05282719271264,10592.996751402014,34164.69528604249,0.21542190360728142,16586.000208157035,26281.109584089623,8937.392589555777,19419.66490196518,36480.65479257165,171.04951421140035,10.916880827261725,23.776246215612822,7899.968379028288,799.2524673408248,749.0197569534442,0,Low Risk (No Failure)
93.79709303566896,29361.809288408804,16276.518643870215,0.8892268915849871,24704.736603164372,23524.83128962434,7867.604186194117,53622.37346760137,12054.944221351874,293.88437381568673,11.107466627607245,20.360384255969258,6508.643124228654,501.35579992211194,920.8662313055788,0,Low Risk (No Failure)
165.8935336182397,16103.651998178384,18006.293084114033,0.3781539679503604,19329.258374816753,28862.720181790948,2358.5041592102853,38792.2636066166,26893.489661840234,155.15795339147326,9.142838484705639,20.015870845756716,8183.871022213911,736.0589082966998,575.0355629002443,0,Low Risk (No Failure)
187.39897751302195,6196.210564134355,7156.982559724882,0.31478381581281056,21636.80388621188,12993.928048719084,2490.9592186304,61883.37794047572,20469.6314743818,242.34343707583986,10.341136176160568,23.413834500492193,5601.541812964406,848.6095431370984,835.1516731220522,0,Low Risk (No Failure)
65.54763267617062,9313.156857323667,29932.532220697856,0.7553420154341339,35523.04786787845,29351.60310562873,2302.6875818338094,35528.29198060221,33065.83399934169,257.8934224314955,10.717642449724512,24.77073027795974,8576.927503591145,1580.3317976838655,915.1852938625775,0,Low Risk (No Failure)
185.40668551766356,13231.45301614765,8648.544704589482,0.8625892413413637,18931.1916598862,10690.292209145333,13610.015658826733,25079.161077159668,34849.28085291851,124.31430133491301,9.980950401011544,21.52241836146751,5876.664514875585,822.2271264292281,985.43630674863,1,High Risk (Failure)
179.69170870872514,27637.124382850518,32585.918867384975,0.838502525323637,59984.53390303524,20776.213588217135,10175.041677613748,57054.82024245592,56571.518301178345,181.1667007263606,8.47394653419175,18.292043219008743,6788.356904403485,1178.5548437415791,762.4369033086779,1,High Risk (Failure)
173.15818149014376,9683.270619290091,15536.510589154641,0.493974988305266,38634.27312556898,25134.275843180792,10994.99127459428,46030.447631422205,31357.429805935695,227.16920962612434,10.37892103661845,18.85555475339958,4250.139729155131,1951.2806175576734,560.2134461705986,1,High Risk (Failure)
72.09337821665072,14938.792821059858,29625.5991408399,0.41351685437859886,24764.898572714257,7355.607129112292,5255.574460117376,65881.67611463909,26584.981662200553,153.93018681945642,11.411192412009825,22.170499783980382,8186.744461820325,1432.8819143086266,955.5509223997091,0,Low Risk (No Failure)
83.9867883758038,11884.3190274174,5174.113065288233,0.6476595856402947,59683.42508186949,5872.840365080435,8596.225034156527,25518.942076766514,62299.11287432931,269.7369394708852,9.25416394171694,24.949575622271208,7124.988044751202,879.9298971112016,682.9742525218687,1,High Risk (Failure)
149.54245300931487,13838.11735705564,34085.795699720205,0.07686710338175484,19030.935178249307,8809.032109134954,4086.6405567631728,23461.375440801112,66541.89079453135,278.0833845220451,8.710191076160493,23.88403837584324,7521.58753393808,1202.5036177506113,1236.165605028319,1,High Risk (Failure)
201.20958028357558,10551.963943992312,12059.766528792488,0.4755700767536536,25828.135202822355,17302.55264097324,13300.975651849603,14712.755018386997,47667.54869202042,272.0657783090129,8.568464503681508,20.34639975619316,8496.793118063975,604.1930376607207,1232.6465306143461,0,Low Risk (No Failure)
154.87038957467252,8822.531510339244,22085.356080332636,0.8254144375738107,15290.224933411539,6866.823254951563,2117.9563172882326,14227.42328955263,29660.37378239838,154.01393680287697,8.550141082336678,24.904101238613173,9320.968516768351,622.2585067419756,1444.1917559196536,1,High Risk (Failure)
147.52725529849243,4446.724775810879,26047.980496987908,0.3187038990282176,46540.800785825435,14557.269713019297,2775.207599954236,40172.519618621314,46964.0154196037,284.66810073735223,11.634891315623566,18.48514652605173,6117.501114980869,1592.7770804597512,1197.0042495111961,0,Low Risk (No Failure)
78.84017326242258,7930.932726134988,5774.215045736933,0.25221839326837203,18389.40191450494,18478.94308422124,5007.421602970222,55201.78137187803,57301.235742398596,190.3099996526385,9.694777258243088,19.65945442980362,5417.642728024097,1653.846745370645,789.7590058957943,1,High Risk (Failure)
183.83862050444202,10975.409453174736,33077.16755959448,0.6417464425010574,32838.276917654526,5674.365496396601,6063.868677615873,18256.386821105858,20310.305659161248,263.9395349547128,9.498652272896905,22.354445416837603,3118.6789619851756,517.7495415563002,1271.2360010970438,1,High Risk (Failure)
87.49271365722535,6415.256828823759,14871.884507027287,0.9261328387732337,31398.21177613068,13082.302520349927,9257.35044074554,15337.626026894075,32216.94370138919,157.86078556279034,11.252607167168179,24.63418653000841,4138.474826508291,1029.0035431051965,949.0967896238835,0,Low Risk (No Failure)
175.74721819017358,11903.165435945035,28269.639059781002,0.7463726747923538,57677.29918226775,13493.519205935021,6933.480768211176,65028.37091159705,69293.68665513743,103.85439432775692,11.532900506855352,23.178863616859047,3844.499742295304,1263.2367059308604,595.6875449297593,1,High Risk (Failure)
188.9588079640253,17214.96303742608,20276.347557381276,0.991874544682311,46872.45715457562,28193.804275561328,5589.9655427010075,61316.90699457865,43532.27761361946,225.71898548860094,11.133516521232686,23.85335952007801,4733.1189860137965,1633.3155225141672,821.5825023761464,1,High Risk (Failure)
181.76604644012528,19076.118579012666,29319.97320450537,0.17406413740730842,21033.724737974244,11025.56596394246,10655.15549706295,36075.0180975418,46612.07919835415,116.28441634600968,8.210365328372667,20.30253301513737,9531.554243703406,877.7612722505764,1297.0127181305318,1,High Risk (Failure)
132.64025939137838,18316.381980449598,34377.14504959954,0.4715870664591526,38693.693992882894,13407.544336351699,11952.878219199054,18292.4587816965,33648.28024646265,194.60567987861288,10.498562347819082,21.763347753425553,8813.791759106403,729.4986378697384,1222.2821079558216,1,High Risk (Failure)
60.6111876253733,6186.390986726181,6049.474649241885,0.3616163412818324,47000.00103227586,25942.981078384422,10447.039385115842,34076.88924803434,60328.37657888009,291.9547502512439,8.53222723963673,24.894002720368,8991.879913675473,788.5652082273436,683.6579477175185,1,High Risk (Failure)
138.34305216512521,3055.279318991334,23848.383771956407,0.4225333548849768,27414.59458726547,19304.296932191413,6137.542879622807,37940.09059096905,16284.742536338897,273.9053788034147,9.702970248597254,20.324104650269142,4484.819973643514,933.7610509779882,678.4141215317625,0,Low Risk (No Failure)
215.52085274104593,18016.269327493144,21316.81089477923,0.8481362893031782,59361.060783683475,21741.278057590247,6821.691714061039,31352.921376877566,53938.53144244325,171.8621218108247,8.56160596020785,23.77547148670629,8226.190081122779,1236.0544518954016,1323.5124481326502,1,High Risk (Failure)
165.30557188761176,19823.33745854765,23541.284362452672,0.0933011783572536,19093.643179208524,25683.74908602906,9684.728847507664,61084.14682535898,38359.45714556155,233.88027961507981,8.973259967703648,22.49573111748321,4293.099452719911,1472.6185813470238,1266.0704707320033,0,Low Risk (No Failure)
133.33177513401208,2009.1767961821533,9307.323903457858,0.7418668600865923,35754.11124594612,14569.291388600726,12534.266451366459,25340.96442774313,15614.915146452218,284.31727844497664,9.664966774144153,18.456640709699062,4772.0890534502205,1160.0451039691902,649.5558860181537,0,Low Risk (No Failure)
214.06830003801278,15349.952596415844,18518.70275324507,0.65147608792907,55947.3474026566,17864.96809685728,6114.021643919228,11859.319495040785,21897.71095121678,283.44986416382704,10.181644436357729,22.95091716902484,5446.913520778213,1041.4418996547456,1259.9877465540076,1,High Risk (Failure)
115.61144387823714,5013.529993075612,32322.554382144415,0.6061243888829777,47909.58795034971,8582.077857014134,12947.36500673778,47283.12392571262,40864.069592061125,102.13403985193092,8.868138282781482,21.297057594216312,7940.776615501643,1113.2915663556264,699.2340334148739,1,High Risk (Failure)
94.5313643994949,18571.007640205007,15772.123371294536,0.21854846152056295,39270.948720310334,10227.10507362252,12460.60918462099,64096.60337129933,56702.96787617382,160.82334145517572,11.727163215938862,24.345374199863677,8349.292777620776,1358.379785734735,674.3027663344004,1,High Risk (Failure)
209.50976428888228,7142.146346563578,5536.354521044542,0.7871228629394419,58965.64168199524,21384.214027793943,6751.151494031293,11925.858429104694,54528.66553307023,207.43072486381647,9.318698778370198,20.118765245604724,8562.512471449416,1721.6479559727707,716.8927383229552,1,High Risk (Failure)
81.67352588715053,17379.755723705486,28613.033976076214,0.6912404111366103,28865.68834217336,23912.014499414065,14817.694375631345,16830.07551255501,41844.55788677072,175.60596833679296,10.36408903676805,18.665517876836507,3119.0778161660046,1953.7216557164825,660.4026905773667,0,Low Risk (No Failure)
211.31170352004517,15030.110000901093,27709.842784689667,0.031108584187416133,56218.04679595551,6855.677896711366,4605.734136835543,55847.400877907996,38273.6900391967,269.4820684814091,10.767090478771296,23.350753975267036,6469.048266286329,607.9567710644064,618.1859721612229,1,High Risk (Failure)
149.12648212400563,11833.422295133338,25166.761416415247,0.2975295533954889,45757.46195098701,16101.196070949842,6840.75292951754,16008.971601946654,50803.57162173601,136.68380761835076,8.906458025040795,24.490241920886543,6484.743195586526,805.2788858538281,1430.2222967450894,0,Low Risk (No Failure)
122.70569007102544,11641.777122692863,32352.131248320606,0.7212682934854172,51827.30503617532,25485.337613499883,9043.602168703186,42342.35661664551,23296.454638744526,214.06789140634936,11.68950074570474,18.982306093922674,4811.528888835082,815.5650148494693,807.608519208906,0,Low Risk (No Failure)
150.56294798205136,11902.212886695506,9474.053235426134,0.5456436183243134,38878.60120676053,28559.32178756287,5038.837745361301,68439.86398099687,39576.9173311288,109.61376761168597,9.818991476620422,24.921718168452962,9367.133954632336,1415.611263459428,1369.861589065789,0,Low Risk (No Failure)
155.2586192250996,24201.57783058977,22209.997926470292,0.6191515515743273,48831.54343474498,25950.890046204364,12599.830184240962,17986.696793341525,55672.31025686043,147.31119970246033,11.798005664920385,24.61782794296317,9831.20643874741,755.4095249456867,1339.991061130286,0,Low Risk (No Failure)
202.42258198336233,26569.80188546649,31237.294301546022,0.6120038973314457,59226.11428672585,5762.484741197034,9740.210204253925,30563.7827460044,38276.42070626038,286.62029745832245,8.26592215794567,22.296527921525765,9217.118357333591,617.1652050820459,932.0809451563531,1,High Risk (Failure)
198.7315709728166,9637.922553316126,34377.855968259275,0.3621487834802368,41706.42899344371,13999.970235994322,2481.6257690999523,23583.424207584023,15485.686023992788,261.84284137714405,9.92849390875645,19.09263366230169,5474.03737506202,1664.1548063990545,752.0929165570676,1,High Risk (Failure)
129.13230127107136,5841.555191999606,22809.57738340431,0.8504522733622586,52274.68107417356,9374.140997268663,10347.61360077784,19695.338078175446,30481.13751582997,141.73608455492536,10.835522562892606,20.155064352606466,8672.561070708787,1239.7408913500503,1027.1746220517311,1,High Risk (Failure)
155.23675723510425,22236.72234763725,25680.164666002485,0.7700393156821232,33630.03072981262,20254.272941049625,4637.200218914028,13033.799446358345,40064.89315162241,239.29403014145657,9.033199355527028,20.92077705945115,8062.4800725896075,1668.0669021175297,1277.6770633924739,0,Low Risk (No Failure)
62.89762941133448,15583.390081901962,10201.194702725246,0.1571824716083735,47441.964675386014,13534.743049523939,11270.474111010013,13676.562390006686,65238.99572966032,222.78750913875461,8.759729245999328,23.046818036463247,5707.7970470377895,1208.1684630493291,1135.2189854646604,1,High Risk (Failure)
90.94965487303722,2516.014795893966,28175.79269487783,0.07742226333284008,41194.84574311,16229.409903908361,1496.4263293606855,27877.95168522016,20948.183569048862,130.56550176880324,8.040133795713318,23.635543073544852,9170.881399999758,896.9325879112798,1489.6269183214795,0,Low Risk (No Failure)
120.76024366709079,21588.05912959314,31661.48283838239,0.9470313969234275,36458.758130607355,5907.868483393381,8200.930256140831,11121.38713381343,58042.42758193527,226.51504839052126,10.079394485252898,20.371049563202288,9721.512597162971,1173.3507632143446,1311.9223931147608,0,Low Risk (No Failure)
86.5527832473256,9066.165573018414,34672.23396421113,0.3245763356293674,58301.77493120546,20096.464060946884,2440.9244291718187,53428.918568959925,52263.919799683244,272.3050509005514,11.653585048263505,23.301761498799515,5212.26480809777,676.2149260453981,1259.2870910017443,1,High Risk (Failure)
191.95891797552122,12666.545664213241,32446.35141852111,0.31578538343987894,30312.89101942786,10927.035123281788,5994.398047703894,33629.270175855956,50422.150280613336,235.3774261650936,8.029902345874278,22.6562755101424,9726.163145870794,1219.8993005955012,652.3870156317566,0,Low Risk (No Failure)
121.87312912703646,6561.430290516459,26195.88896909573,0.742570110742456,32097.381378811286,11505.473308121425,9704.64767854869,24104.273974532793,25301.72820473268,178.5387262069574,9.96985154416135,20.95737659568569,8347.816562357013,1843.5073310220503,938.886652316171,0,Low Risk (No Failure)
123.68084687272045,27188.468939972947,25946.989694393902,0.7417833308897033,46790.50583924613,25232.934390638933,7038.48362025063,10210.42910864167,49594.24720152941,148.6266859583172,9.217382832134831,20.220824458940122,3011.352900326421,1023.5398894149716,1071.1833761535884,1,High Risk (Failure)
199.95226762947192,15892.018135511331,5692.564416553105,0.7575838327190574,39206.16150889825,5589.867846580044,3645.51804624238,63501.70695759925,59946.42368574666,163.20047370939832,9.39428442081859,21.170147949193705,9358.563160135005,1749.3748900057783,710.7428408530496,1,High Risk (Failure)
132.35487054236916,16509.18452215458,20727.737837115066,0.07295986391295484,59703.7517298208,11921.523288664119,8857.527475153467,10180.477633643284,20898.33339267846,109.44166329917668,8.002489882260688,19.747003581418316,5351.873755372442,1264.0067945871926,1325.0705509981526,1,High Risk (Failure)
105.096763963744,7910.400446039655,28305.809806948444,0.20050952355088747,51975.20689656072,9651.250820217487,2782.135796052646,33035.799303308595,31200.87155231953,163.6120140971771,8.619130871443968,20.01495327949489,6346.038608634948,1392.2658849934646,811.8556086127396,1,High Risk (Failure)
196.48151287477762,14778.142583023226,5597.044512202335,0.27153348290850254,32413.24857829818,10689.066529467143,9949.67586923093,43421.144598619634,53901.09652310926,210.72415591297477,8.611417820672557,22.942059470912064,5404.147369322132,688.8341510900434,538.7246827919288,1,High Risk (Failure)
187.04403028324737,12102.168448284623,24396.05296342198,0.8369034453166548,22295.937537382655,6494.539386133279,13784.583877213588,44100.402299562455,59687.06199958346,256.3248886416522,10.73862822467161,20.60418209401952,7093.352416657407,1180.69157193855,1417.3791084574618,1,High Risk (Failure)
115.72087472372806,29258.740008515786,22708.972152667986,0.4531734118938824,29142.154419941515,23382.40120051278,11408.105284886808,63414.658746904795,35130.45850228728,102.63601726118357,10.730092170320683,20.311516492862452,5691.1160363028475,1320.3116135995247,722.8115064219686,1,High Risk (Failure)
93.20654979291255,18523.52596362083,25648.540111040238,0.8328690417979895,23624.897415711348,7019.154620589461,12384.507802312844,53858.7306021772,30832.806623322565,258.2042470420856,9.746344278568133,21.48153122572666,6924.211275889131,542.5864748134735,513.0187927407846,0,Low Risk (No Failure)
69.92588218060504,19372.523514868935,30668.83044605701,0.40719284968585356,58283.04320370755,27690.45262196219,12528.698291889936,52616.31123364712,35201.66310773151,189.72757211457787,11.45137066666405,20.91877503961226,8778.738306464567,883.9914305596512,936.4636808648672,0,Low Risk (No Failure)
164.15575474415266,27088.762191797137,8716.416958866857,0.719761413019332,34221.47662994903,16566.209177871802,13102.010834911167,69299.3571092479,20665.97709331863,192.68871119911552,10.928297474302035,20.97674329745889,7621.675822536034,1271.5088523129652,1487.865778603582,1,High Risk (Failure)
136.22991781500667,22643.100564503227,8652.559929430352,0.10888161603116575,44808.70857365213,16266.175772945364,6262.1392246004325,26392.41329384373,52165.32709513521,168.2856302341857,9.062967486202837,18.882722013768543,8641.019783582622,754.3174804759549,998.2144757254498,1,High Risk (Failure)
130.73712554875522,15932.955366382,17730.14419388827,0.05990470100336376,56098.71217314494,21680.17637553874,11862.048055311554,22162.424772510512,39752.17678495708,237.3924874656646,10.098035373675593,23.884064574931955,3966.3983790384646,763.8671042737847,532.293507469886,0,Low Risk (No Failure)
205.02999253510575,9110.541839846852,31577.710112504097,0.6092974392914143,40799.65937500786,17171.21437758683,1688.0236153724793,23800.736326396072,29715.124796521097,108.13562248890953,8.633625482592418,18.01448224004038,6644.728473924633,583.741453414427,796.0300198179498,1,High Risk (Failure)
72.0220450777294,2293.0546892901757,15706.659868412034,0.6437404583772466,49619.60267566563,29098.53167459134,2311.9467205985384,30500.126894229405,32762.799377497446,227.72824000307514,9.725383991341275,19.1542932208229,8892.702871569029,669.376086762298,613.7383487350208,1,High Risk (Failure)
213.7816776652149,1668.365563791615,12562.959786868998,0.08159163038692696,17393.340366021726,6475.667770510575,4881.4025599729575,40303.09779061356,21057.421400200634,286.89875519166026,9.23990240583038,20.322590598702234,9439.171347445174,723.4487815886101,1246.585836984329,1,High Risk (Failure)
88.69834912195367,29412.295708441932,17830.787273486138,0.5471151083286355,58453.61229186515,5578.658633883541,13789.144415715598,63945.4706512649,24225.733503789972,142.90716727571143,9.37086760466566,20.180066481152707,4783.432038674907,1133.0102047945895,850.288932114785,0,Low Risk (No Failure)
119.47828718501285,13970.91607655654,21512.911638413614,0.536349627899556,56072.69817397789,13724.693174917322,4671.11704220655,10508.783261530472,20595.358632029158,119.52678436672153,9.79869578380053,23.796095997920137,7040.5848760769,528.8631267883969,1118.1389151434448,1,High Risk (Failure)
160.10910596181643,21248.24815133971,11934.541026880312,0.5897528545321056,25727.356146906066,28851.243998197955,6411.951565484322,39641.30534447025,11020.914021383727,292.9117941329377,8.20050953183083,18.07740655176735,8737.44497003967,1739.6768342859298,1101.9224137796257,0,Low Risk (No Failure)
158.17665827799334,29687.283819196997,11531.871027410738,0.9934835217062494,53355.65104286871,18078.822482848398,3574.7335022581933,18797.9964203392,51952.265665109866,131.9217342968128,10.542881123925905,24.723227847624276,8411.619222824094,1296.3961217816263,1020.138645299958,1,High Risk (Failure)
189.19042482625,10223.148739141077,5615.327579611735,0.5690465748936742,46312.28319129684,12686.898380139563,5885.3337603189575,50836.76872404789,54411.665147777065,166.04862094050583,10.683293991198344,19.400867723259385,6728.386510854323,1502.3359469108593,512.0051122107543,1,High Risk (Failure)
111.0361008470018,24026.41905771292,19805.010922178502,0.6561288043672019,40055.5264613481,29644.190145620334,11059.50860594086,65536.87504058985,47417.66497107194,132.51897078941084,8.411534182832797,24.251958478224147,5073.400942165048,1632.9210016776324,569.7302506219537,1,High Risk (Failure)
159.53387203645974,19742.98807606406,15627.971639828775,0.1958721850791374,41828.84010251216,13137.554133172234,1826.177319422698,41544.67630711264,22511.223295275537,296.51011645714493,10.758470656856957,19.760023742150835,9031.829280269285,1474.1510054772175,1133.0765459162653,1,High Risk (Failure)
65.69443692903621,25704.751491641113,29177.169410567058,0.5365357736257104,20771.16925402792,22145.38582804419,5654.755523963171,35422.49614546199,52225.89491204807,144.71871388828163,10.680103325773393,22.953639246720158,6992.932218192564,1201.8863853383782,1452.7754265636083,0,Low Risk (No Failure)
137.73948146981212,2933.1350648758767,22111.5829872868,0.5544552278666393,40963.72446495578,8066.938230064817,10148.237675790906,24842.461065061427,61191.04432484685,240.41851738393228,10.920145182099683,24.387201331058918,7391.277531070803,1050.5724519460923,1002.54858928816,1,High Risk (Failure)
73.0814451118195,8094.996583536678,15448.238460895745,0.35276846585695576,43421.0149265589,5475.974188231213,12423.673318535157,16055.618501709076,23505.8112347415,223.52756343755757,11.26214599570792,19.147603448582075,5157.307125374432,1608.989470259993,1158.6776146438372,1,High Risk (Failure)
165.07786632660674,14328.827800254867,13469.790521958274,0.8731592873828264,39835.28127746156,10139.741531181087,6561.326150560859,17741.285143407706,38651.294664551,278.75680785939267,9.50092619361059,20.846762325229637,9189.450154314047,754.3025116004685,541.6307221068652,1,High Risk (Failure)
106.92937772489034,25382.767086234322,14848.168806744538,0.1008047848685576,26182.60473760231,5759.346969289262,6478.207023029197,45741.098508078256,31656.638153421212,263.21184578895304,8.524423917496017,20.894656902694734,8367.297510765364,1438.2924364035357,1400.7805446071684,1,High Risk (Failure)
123.89321283187562,12017.115147358416,29934.16893306148,0.22064594467895704,21256.537146826988,21602.722262075724,12771.876614248595,36924.117661772536,21695.03366465516,165.62397146564973,8.566195502125835,20.135122298675135,9590.43301593602,849.829484690824,829.2315668305746,0,Low Risk (No Failure)
131.9583747920864,16473.078573053805,17862.54225024063,0.4384093323592696,44008.89029728572,27556.37423441713,8884.7803524935,49111.02752796791,67208.75946895572,229.28562303277985,8.906637308578755,21.269100169003263,5119.236479157496,1676.2961187706276,1394.6106966482203,1,High Risk (Failure)
80.95579887906786,12572.173109400817,27432.958314200965,0.10587902147380224,19577.329981783307,27478.0707452097,11600.26588350935,53351.441168071375,66596.7162708458,266.6624975314689,9.09419990384078,23.524258700006598,6400.009289838312,1169.57860974497,650.7440665431241,0,Low Risk (No Failure)
202.69954316971757,17410.029133228967,30789.317316961882,0.6079571838100452,57325.16673405802,21197.976179003417,12464.047226759645,51067.73355863934,60286.897812585645,199.91478858568485,9.486349423751738,23.260952312020986,4783.623581590036,1959.4136053292252,1496.7264257409572,1,High Risk (Failure)
209.07846453064133,21215.643009561998,24784.705132629555,0.7451516535267858,52531.998729966705,25684.121780115245,11475.959434626471,68022.01051550385,18141.255778917282,110.13070105084417,10.046519999538827,18.38199385037235,8784.047632450667,1111.2834022509137,736.563279590212,0,Low Risk (No Failure)
198.86692712320354,18133.33147201956,19258.78929696525,0.5969602868455279,33464.11324393221,17165.817051122314,4505.934429931367,53510.49184543007,44428.81201455743,142.33454976758574,11.49766530946112,18.575500489505885,8874.445289677555,1605.6010826091483,1242.3963152427696,1,High Risk (Failure)
110.44645405289765,26131.2749692696,28259.472616411284,0.3905621024270317,25861.678710180175,14722.44576600349,9870.942295813344,65725.59175042628,35849.76383286858,130.14293963984238,8.154911747514832,20.84160956053501,4992.95473983614,1164.0530572913947,776.2879978632984,1,High Risk (Failure)
112.45411181600545,4553.055133575721,28423.19704661568,0.33821651718250556,42797.90473595835,24243.335064351108,12717.428201411363,64613.96860921071,19456.23282217469,244.37186631015678,9.926908542953989,19.877584907160593,7130.337336588609,1812.521521044761,1305.4900431004626,0,Low Risk (No Failure)
142.60532787162785,22036.298448193145,7394.931996886203,0.9961507905301366,44700.58473938072,17691.220742107493,7512.893514400173,32921.47826436511,66887.42690652463,296.8800998612204,9.930582289671928,19.348744351379978,5043.114783936721,790.1196415836696,957.4361228533,0,Low Risk (No Failure)
136.08736599789228,18810.896659247886,21539.916490769036,0.9855193569028654,30250.869147767527,21909.420891372807,4166.054965203219,58459.82894167732,61806.76181034194,155.85366644106614,11.407701430655646,20.538946302237726,4416.191602888381,864.2710828097552,1342.4034375786873,1,High Risk (Failure)
117.24979989369488,26527.301425168927,34201.37587325352,0.044858336185385816,51634.36531352562,23123.486015261387,1590.027897448749,12459.960889577847,30350.277944247242,198.83657395359367,10.133816671370742,18.346908937936824,7452.638714843071,1228.5358106476392,917.0406753494731,0,Low Risk (No Failure)
140.88332667575844,7697.308273363588,8953.12665791108,0.6464685204315495,45046.39927679121,26054.377863611408,2735.158374779863,18926.468715039904,58106.347964561886,250.07619103186525,8.991752101941376,23.284168645760424,9431.775267175391,1628.790092701424,1414.9229974755626,0,Low Risk (No Failure)
166.62166617251302,2271.558722402267,11459.915825861945,0.45777935126563984,32967.39228070097,23345.547176740816,8997.141437064685,62521.43114370871,66056.1978900262,159.61591098321378,10.70296393638898,18.651224379271238,4747.274019700043,1043.6371098335092,650.2660252559627,1,High Risk (Failure)
200.21110930276984,9397.898435451087,20244.719196804428,0.757813305694266,47784.41693978749,19345.469000843666,1021.3345143666381,33308.66501104589,36420.073969831334,206.74786951209063,8.944825467431956,21.131019045082983,9609.576415294083,913.5730957204291,935.6418505550434,0,Low Risk (No Failure)
147.47364469492476,10698.833286425019,27714.517409223175,0.3550947663631898,38222.78200624397,13421.963628471804,9148.432876900886,15741.146893992836,59706.28016462334,203.055020061549,10.841500535917326,18.92632476866101,9844.641466317236,1024.8536057772249,1168.468485419252,1,High Risk (Failure)
98.78555718641283,18216.853977353265,10790.449562170958,0.08319367685150725,59216.45151983104,17590.538277218293,8328.413174108591,44347.92093726885,62398.91373216204,284.93889035801493,11.537484236070668,22.307690986114252,6045.262241365042,1030.2867964168906,1083.1107146439117,1,High Risk (Failure)
147.9247257432027,9546.339726680311,7696.348403019141,0.07979704655945741,53737.8721393864,16060.97972947025,12615.730909059967,16890.70913238327,24597.524608976837,147.93276010887368,11.818727935114453,23.049292690569594,7156.435877639695,1299.3029815588052,1162.8863741985808,1,High Risk (Failure)
107.68835338231091,14050.702946306275,17120.898509853796,0.27872700672712414,35469.890208277415,14323.773016020052,7432.560682261643,23878.004384679814,31132.384721156803,252.5756422320077,8.228174726766442,21.09894302865896,4405.143221126025,1633.0471989875564,1488.505167902411,1,High Risk (Failure)
131.5524064807737,9589.126201210956,13964.091922498239,0.024774126934383744,48820.36342996092,10570.981381048372,5805.18853969509,12171.16782855191,58255.8720115325,261.07846857402853,9.88904160401044,22.227304670920134,6190.4491011988175,1540.261475675823,1282.9217665629822,1,High Risk (Failure)
96.24346016577691,25526.60147144713,14375.163709556075,0.25223921907695224,37804.328577784945,5579.650294825665,8568.945923183135,49113.38982911459,30564.107543043516,298.2133321244009,8.13886437536544,22.6001182014574,4823.222509235969,582.008358809821,1237.2923247986737,0,Low Risk (No Failure)
144.38393953962822,5703.317799828445,8406.636315304815,0.2434563577719976,31906.53484899376,11591.59032674407,6057.03266415177,19830.93680658745,16682.993907205666,102.04828419811332,9.49278739482764,19.557454384668176,3623.7282658698696,1750.7905405032852,770.7282636532402,1,High Risk (Failure)
75.46823194347513,17120.25361176982,15286.76274046939,0.5666560776020624,38549.74171708695,5634.044429018205,6639.129170003689,56909.96898553014,40344.64304514583,251.95635880941285,10.671529470971581,21.43793999269255,4309.108930531676,1612.775855346835,850.760568381173,1,High Risk (Failure)
195.85568319338816,7521.716626540421,25924.971081112835,0.24260701695345221,42737.798614958665,6169.79626919853,3212.760226642621,14301.452817725914,21980.943675517323,273.61768592761706,11.596021243255311,21.564936008008015,3593.397190785704,1102.1504893533788,816.4032609761822,0,Low Risk (No Failure)
217.4421061136743,6609.969612346187,31595.92012115503,0.5998412211431142,15873.700194445453,8418.270647890211,9713.874411106826,26870.156887122834,25985.8682650131,142.08484205142295,10.677604846117449,18.410930937396078,6696.811122136923,1532.3680106199045,556.3590230394861,1,High Risk (Failure)
126.90316610604795,10087.71278648038,30848.97818736642,0.44750069761745115,27383.508259239374,9044.643362043691,13837.673137800008,54174.27728028164,13538.021615744437,152.36307770611,8.469264036102839,21.870062819612635,8614.485327185419,1372.1703134527268,644.9466462825931,0,Low Risk (No Failure)
154.08007414874055,2690.618912008354,34604.320453962675,0.1910451606552953,45157.77114265207,8186.758869631032,11413.263150923995,14570.066152047344,19471.326183920883,255.62697687916102,8.41581493498622,20.24343738312326,8847.590475734265,1073.6621627052882,651.033500026705,0,Low Risk (No Failure)
129.1996605328211,22616.534435104644,19865.27531991915,0.05554723348764601,59194.06428859296,8163.422085470469,2240.0872390193717,36740.18225439087,67097.1645947308,144.0397834345605,10.59264406693497,20.755214716763145,9165.80311570263,983.998661699067,952.6706518385449,1,High Risk (Failure)
96.17265136169003,17049.403322824975,13540.939066626664,0.3741051349563065,44477.655780326226,5201.827370446073,6077.375581781154,27149.484985298077,13982.35065390608,217.32073467831296,11.709054593004735,20.945070625805094,6058.424259411968,1700.7118408448969,646.75708855608,0,Low Risk (No Failure)
75.18686989146715,28014.516425502596,24765.041010765144,0.5714485657480787,37985.23457319659,19083.281346019885,5612.4897834391095,56661.40335821095,13531.389086060768,132.77484457239368,10.036149247749112,21.28076934259589,5250.380319927227,878.3461322473963,832.8206268890776,0,Low Risk (No Failure)
92.95680574031387,25075.140046988035,11157.017803409275,0.24350626073859472,40335.21437913137,22004.94752141327,7386.950559956478,59257.56316819182,48706.85405081017,296.8288534389389,8.488887179404173,20.513057205040212,4211.511588346206,1873.6200175770011,1106.0595004707698,0,Low Risk (No Failure)
187.16980856666373,20277.43694241454,20377.72775801889,0.18683440629458303,48211.88122563928,24890.752857432693,11091.528853932406,43650.029686702685,32439.784373661707,266.49873997471923,9.670985132082805,18.808862470596488,6722.875938722135,933.7002168191716,502.3472098509223,1,High Risk (Failure)
163.90061123785958,1969.7015812718323,22989.20432206899,0.4201280789956181,44940.73345186049,18615.874684908216,11356.774842990702,10849.975657728095,17623.19339749998,147.89360770321264,11.384952193050108,22.808584339129027,7451.9538303932795,1879.685549915594,697.5646638392099,0,Low Risk (No Failure)
125.808635530597,8904.174715646615,29583.142453798046,0.10427775783154625,32009.516275615577,23974.057240465936,12801.892963657929,28479.93772564613,32200.452667950416,245.60605024109213,9.29828758304136,20.9290905782378,6169.533182299805,1076.5492644895955,1161.0244472345366,0,Low Risk (No Failure)
119.97929272379265,15671.848204245422,16066.475646676676,0.6385250461916646,20333.761296905675,25941.522644401386,11514.170418571543,40338.974134211865,53356.34761994666,247.29466904985108,11.388359278390322,18.26260672847987,7769.759626880432,1334.2248289058361,1005.9163770202551,1,High Risk (Failure)
158.736951108585,17546.28073411359,21950.533067183318,0.17021463488200483,57873.59704466423,22664.75147256556,2769.1534190631264,68575.2270385678,32951.25040496095,191.98974973177707,11.45658079602977,18.850546252242037,9073.639804040726,1473.4956291171075,640.3383019881885,0,Low Risk (No Failure)
96.06100288108253,5754.01990764288,22481.644279513363,0.023089622682200828,19452.426992273555,19240.449189644,3720.559128311496,62789.88976719907,28284.38537287095,171.45691362686844,10.49704912889089,18.578745007738508,7262.005586078814,728.588193870015,1012.5386178964845,1,High Risk (Failure)
69.88935371027563,12710.519152177478,34713.97196184729,0.030624182237762865,32890.470395512966,22925.952533133845,1000.0775134603319,12831.184903735584,59467.0952047894,274.1806952822608,8.791544298534202,18.20118234200129,9437.353736895035,1924.2926443693855,726.5240297042429,0,Low Risk (No Failure)
74.141591517523,17689.52953560271,24033.59419266809,0.662371624396249,41321.44926261733,19362.752488121558,12536.762855366118,53953.852892253475,21539.068768239584,264.5622356986642,8.132837652132652,23.47096731318825,4946.874498922083,1885.329450513931,1334.2619812202595,0,Low Risk (No Failure)
152.46257803105414,18131.85791923888,31135.109958829176,0.3879350756788693,51967.883260414135,19074.50151504871,13436.33953073276,40272.39352304533,10252.355276980834,253.14667500329037,10.262876712769433,22.005781862194368,5013.505344802064,1919.109736927792,893.2877226556559,0,Low Risk (No Failure)
103.15993784271834,25840.587671816735,7182.871287188813,0.7081516877406011,47975.852386101884,29989.959555000496,6514.127117970599,26253.71341455118,60997.26178400139,239.93395462706877,9.306975966137413,24.872875294320128,5945.003457019071,1237.500714389242,1390.320669089437,1,High Risk (Failure)
167.83907330331687,14652.109379240486,30027.665107555156,0.29290567548335955,15207.0245576648,17444.919925843955,7760.889769368043,18242.086025380173,15419.620467020646,118.91971407945717,10.177869945250169,21.013625774770716,6508.128073023755,1080.597399935763,1356.7659465195861,0,Low Risk (No Failure)
148.4259628442797,11085.332830528696,12303.620359152974,0.011556281014185599,19300.89180923388,22490.14369093051,2985.236416540559,34684.82814510177,63678.04341983614,126.13093910720642,8.565037661915378,22.500382826585632,7852.991483497659,1895.522106687519,660.269172694143,0,Low Risk (No Failure)
88.82538363721908,28148.243727531273,18999.031098505613,0.17286052498872695,30165.801547235445,29637.962473927935,11217.884638488638,31156.689632466016,47028.83086003135,115.25379636730248,9.646174275582826,18.74157497278764,4213.037265214504,850.6008083682154,1033.0800771447405,0,Low Risk (No Failure)
199.32055205396148,28086.95674278854,11371.119659074933,0.7294439883265498,47799.16318937235,12377.736697040122,7760.432588145627,54125.32272908734,37954.31092024834,212.73289613915463,11.535584117278377,23.61995808677521,4527.537681108362,1762.7920708417837,1062.876364645857,1,High Risk (Failure)
219.9548277257809,4869.073730173006,27763.824281129386,0.6558489485738741,41190.417639686086,20146.67118779721,9053.545361303544,32187.276851279523,21595.941436456575,265.4123480651252,10.512847470169671,24.535650673823056,8677.779577478785,1163.121046953316,1081.4632624956016,1,High Risk (Failure)
197.81919941814976,27343.893110788515,31422.45731222568,0.698820581244282,42581.61827352326,15428.403570259476,4032.850814357217,33518.004200265525,17374.456480767727,219.1464524864474,10.89850460863189,22.44117856130273,7670.602599584205,987.6236984705997,1160.707757278617,1,High Risk (Failure)
211.8836969992987,15852.928722082726,22552.996956349583,0.40089331826662655,43939.21011985488,21851.69735044276,4954.961362732695,10734.101372823809,34056.79465673688,294.2016603869678,11.932301150776542,22.862621749449392,4356.867310952012,1190.034780555656,1051.8942462386285,0,Low Risk (No Failure)
93.97425770852419,19424.37705454131,14979.697994626744,0.46854694979147227,29389.978007200487,6679.320922375224,11063.442856981706,35979.995590082355,65454.2699452506,111.68227615686402,10.510910142295364,24.234489868091575,6794.9246554722395,766.0720268692726,561.4005256033967,1,High Risk (Failure)
191.05637082787194,24857.066585932393,25351.79439217722,0.5319817999050007,37178.44525072216,6663.570377704437,13652.139160519313,35104.27958478701,40690.40514079587,209.74925568803573,8.058236000685898,22.82077900287326,5734.031945196071,1973.9997022356179,1111.3114498424206,1,High Risk (Failure)
138.18291046474653,3622.1503559581615,32049.601601381153,0.9951821206249387,24595.568945048886,20847.284747310056,9042.17376488959,23672.50090437841,63397.941064993975,188.3681111144158,10.133681963613363,24.1656330751984,7924.426960993678,1861.3100436459565,533.8978928563616,1,High Risk (Failure)
96.6077064786596,23231.282396649498,14588.543765242137,0.5830064830045513,44342.9618858375,27886.965071742867,7756.499128292745,61055.41452425714,64174.19419916723,163.32566521388665,10.801652065255208,20.40076134696099,8838.014707184371,1211.579804487219,1316.489450902502,1,High Risk (Failure)
165.86676154067024,20006.112784440145,33176.7240851362,0.2792874957941657,30662.352914592037,25186.04971486359,14327.618565906378,50739.634888461944,62739.147590144465,237.76048446878838,10.059414848883845,23.401849667453163,3515.5950708857463,1891.6587428588878,1401.709675134024,0,Low Risk (No Failure)
81.8303604090773,12898.8079343072,24913.002083651,0.8486686756187097,15789.872290124045,12407.324694237483,1137.3525572023757,13525.886459516856,20756.729334202188,143.22322445827194,10.169766034562572,24.41052404648811,5923.744845040153,587.4664956434029,1139.7617174746265,1,High Risk (Failure)
121.68190475790757,7110.49328717228,19500.62909176697,0.40617201291148597,47635.042325331095,26167.77805831298,9427.246276018685,37155.40153237304,35489.23797612761,277.05702360240446,8.820627258502437,21.62977008551385,7172.298717018275,544.5576965562539,1236.2649441084914,1,High Risk (Failure)
101.26445232719037,15336.753520326984,33630.378548699024,0.009475131261696523,33033.086480115766,11490.320239839893,2007.7330431101773,42755.22708354826,19937.89124959435,175.10784009055658,8.9879463000015,20.248377275834304,5665.18171322538,548.8787542393885,1156.3036282170528,1,High Risk (Failure)
118.84149614036633,7905.620454365963,26421.62991966372,0.8330496310689909,25341.918923627007,14507.131208363495,2360.60085868041,69035.66974385566,12312.300003816254,116.70909291217681,8.711343432217914,20.907281283395573,7261.210650204675,608.9106857727113,790.8406853803467,1,High Risk (Failure)
141.69292119352957,6902.530151972341,16823.997284849353,0.7591624811633813,31982.599969066105,25647.4067323024,10270.995633072933,36602.688055336126,10922.210962527326,200.41904668278355,10.245185811517088,21.112985945391856,3606.015047559228,1756.167498456176,1127.552959817589,0,Low Risk (No Failure)
197.2048972403078,19387.596624318518,18761.864726007225,0.39455277839364533,23216.943728784307,19050.529557604677,1435.3245935452999,60865.249693302976,17439.89565009308,232.40878278206222,8.537171602289067,19.976452771614166,5500.819495559073,1388.06334730418,981.4960093632001,0,Low Risk (No Failure)
84.3277707879187,7423.312916929561,8611.488943238592,0.30386146398872205,21777.835205095682,15831.414092230576,3504.7940919821926,66666.85792229953,68341.34888405958,226.6344364539061,11.464308097460588,22.842202815105544,3101.7494058105185,938.5882062910941,1299.1291076321204,0,Low Risk (No Failure)
148.5938376572818,19538.623612259522,29985.471247743277,0.5347397154135111,42137.44205696168,22731.73860430501,5267.833402934815,17954.05233175949,12779.016348799036,178.44069744991816,8.425782186987153,24.877735893342876,6625.942847309221,1029.8376466813081,684.2322530599831,1,High Risk (Failure)
214.91094846635548,26137.823084966185,18874.828220373143,0.45231417476347757,28730.046285528413,6876.557845691137,2298.4345833021807,40633.36592688128,20844.725983443175,124.35781655166194,8.308312837941571,23.35258438241636,7418.34788926667,1660.7881846009043,1234.050998871086,1,High Risk (Failure)
169.31968452634334,16998.951066387388,30853.21519368064,0.4086049707232401,31951.73410871652,28651.091107010634,3739.5346963822267,38497.08795249913,40434.32925126255,268.9091902684587,10.953785814763508,23.124762975336044,4137.909513057375,1119.4100719024932,1355.4370861230555,1,High Risk (Failure)
97.9965690803612,28467.947888458424,9921.19841229239,0.34838806010205736,37189.89817117101,7081.018696967096,2764.9940908511344,46102.943832310855,38577.00436212243,279.56711384459516,9.675919663957574,19.122448118006844,9192.04933802857,775.9462601158443,752.1169395325783,0,Low Risk (No Failure)
93.4212358408262,3094.6510999018574,16838.148549837217,0.3023985198289777,17685.323715169823,17843.62861201154,7388.422729978868,26365.939552601743,45985.60167489041,138.62405626483184,8.310185615636666,21.49272775823311,6455.453589783121,1778.2084030308322,730.1881219534495,1,High Risk (Failure)
124.28460810469188,8455.78659245824,13666.618981226802,0.38816144796031693,58671.44908988021,26615.409120550587,2041.6288081988703,64874.47217957229,53629.753266714324,276.4896355921587,8.240953999111921,22.38991989278465,3156.1106967383043,818.8882976761339,1213.912834320271,1,High Risk (Failure)
94.99356805177331,14094.863661705309,5553.026291022258,0.3251474462311502,21527.278836064183,26372.77225996922,3190.0925549430217,24178.609994427505,16571.69606617465,222.20930634857115,10.408656463408171,19.30777802212979,4477.839226380155,1019.3974821555207,1054.6306968560089,0,Low Risk (No Failure)
175.93572589562064,15431.837080651329,7699.56669048862,0.45547815159511085,46260.70878458871,24082.909701863016,13567.082155044634,44088.25478946169,22421.510875837972,240.6303903126863,11.03629843097826,23.900593014421553,7839.5553044379985,1934.468013003815,832.5830919374339,0,Low Risk (No Failure)
74.28632392409168,26800.934964578282,15762.847023984132,0.6449637707451962,43877.01670279296,15449.700604721836,11785.79581614372,11397.119240016254,11878.16916161848,133.36176529806914,10.865153142759844,23.67984349112906,7885.635088512181,739.402675527228,943.2124686524004,1,High Risk (Failure)
128.39783265444288,1870.586545802753,15135.616570859112,0.1370110286884284,32363.73660037208,10170.12171387421,13796.89802345439,49980.72060548754,66554.8763333874,149.2713547265041,8.990639179189431,22.305974668980227,6199.474721009401,1397.5852893650929,945.8293245888499,0,Low Risk (No Failure)
114.21175718764917,13584.12223930984,20389.365257430254,0.9021338684470049,35777.531317501096,11886.324306161849,14818.893259288241,57266.66446115852,18579.20228997228,250.8262951589841,9.151718276271556,20.44167628509847,9184.492992165233,1489.3894963183952,1169.9149724717017,0,Low Risk (No Failure)
115.56432624488122,18516.144934445503,29505.814416230674,0.09887115505365096,53344.27581211705,21288.242134125187,4608.263092828055,63068.55748099322,24466.79609808003,114.05481088720828,10.33967611857937,21.161248800164152,8094.848746312101,1262.360335830705,1152.4521091892161,1,High Risk (Failure)
144.07524917694292,14567.626315469246,16136.829432722916,0.03273434060421865,43735.64001303543,5496.889896544461,10611.272422142465,27092.40029578489,64365.916139327164,225.68877402658796,9.984678797908318,20.185442758061804,6040.422105938908,1588.9660982993823,1020.4041024226012,0,Low Risk (No Failure)
133.3490278610301,15073.14079619575,17139.662537139993,0.13884164254798526,30418.5926232677,18664.397769786363,8969.212366586915,40831.70271100308,19661.642668041677,252.3370836944735,8.482882141650471,20.683125280829547,7959.961583199427,966.5082309372192,1195.5681262738074,0,Low Risk (No Failure)
162.04386269529465,1680.3116299134786,16663.853568842078,0.5073185006796489,54979.17639845356,15420.755621601122,11295.318823244006,25915.003897397943,35198.95648441769,250.98114151940865,9.241928845388088,22.20861640229956,6862.477838585171,1550.9367220387485,776.7907994368927,0,Low Risk (No Failure)
122.89948771313266,14066.892291667404,10043.0764941554,0.5030294807967006,29130.95627625257,6925.087312655399,4842.792436063361,39389.02527201482,37517.59363639499,257.66733270379393,8.812182405659724,19.08183625047097,9693.458908701108,876.6302009418777,1014.1232464035769,0,Low Risk (No Failure)
76.73085445350404,3414.4720834683317,8955.098534105426,0.908382547371264,33645.6648794232,7046.610099871141,2416.9924019143864,49493.079613482936,13914.810153287224,260.4197309204218,8.495028309867457,23.5650153369136,7801.303501458246,1829.531270516264,1112.702544309042,1,High Risk (Failure)
211.6300841543153,14480.78864358485,24872.899202640554,0.7339364547332842,37564.83362136988,5490.089201157051,5740.67551974291,55800.15281757895,19349.582998214773,147.04865837058642,8.709102071627695,22.08771038301436,9041.450612366363,1037.032876788241,924.689010660107,1,High Risk (Failure)
86.72670526415197,20842.063180466113,9418.214254949802,0.5819372139940333,38901.91789046637,16824.686525161844,7904.580437920025,37595.15623379271,61281.0143161005,200.45021148227772,10.1810384845776,22.198094086137186,8369.484914224762,691.9408934538058,948.6779337285698,1,High Risk (Failure)
194.53945270814762,2587.6044855282585,25341.811303630257,0.31441002637379534,15994.218619714868,15573.640251416999,7673.386946234521,51217.69611319894,17720.26845403871,250.5408288957928,8.129077235539258,19.362088229836672,3693.9087426813553,672.1758449302372,1176.7264640446133,1,High Risk (Failure)
131.3609236732729,5332.06745056653,21922.547650658755,0.9049768817816813,34293.78335842402,23937.63252388691,14054.79597473288,46398.453113539435,13147.290287431772,238.2382173305492,9.179557311469404,22.29074395194759,8949.821053049985,1436.2686457544505,1125.7237757616228,1,High Risk (Failure)
182.48748008253773,7413.280693210108,13144.526524995756,0.3807837345921097,44668.116275469634,23666.629319170464,9391.798899911639,44320.64862886104,32008.21232422142,236.61121229131615,10.83894578976763,18.479750819925805,5490.001949981435,1911.2878109596727,966.3718244548862,1,High Risk (Failure)
155.1162136297877,22447.334195226773,31836.165567217733,0.6666474656992775,23279.032392490895,11737.661459662071,6837.720330253784,67089.24829970743,65873.25522213883,287.0242461078965,9.080292271922497,23.53292158996339,9510.035537052536,1715.1529943489984,644.4560366243118,1,High Risk (Failure)
157.55158802441855,13864.391338227428,12516.332728139605,0.4362671348044198,54485.92273523001,22459.81962498031,14737.33691409288,24991.20203530536,23758.541987218603,165.83019294976242,9.682453966772385,18.204970815859177,7687.220721865972,1942.536887333731,752.7596786827027,0,Low Risk (No Failure)
74.65313173226147,20848.625471009917,15783.350785467175,0.007591416173914123,21793.42469086327,13854.241963006429,11545.37675997569,24423.403790662218,27697.34270336088,243.66112424985184,9.736997471042503,24.904479598403565,6918.692024280188,1011.4122445703982,1313.3937346704774,1,High Risk (Failure)
183.82074491682502,8432.478885707309,34451.81652144977,0.7603873821805035,53212.33815646292,15142.65551603416,7941.15624916459,37594.63621721217,19653.529054575938,280.66043321859286,8.767907110335296,24.077612899698085,9348.76837029284,1655.8811137092453,960.8444939798397,1,High Risk (Failure)
68.03888157167714,2032.7523579124029,23267.14583090114,0.40143816199886495,48902.34408070242,26242.316332756513,11502.039998690465,58083.751259502635,50557.79777098694,229.51986246218797,10.523510379997653,24.585874040551452,7732.129485697411,1800.4178843115221,951.269539463571,0,Low Risk (No Failure)
163.99422892444244,10649.154818800995,29905.488998530815,0.6505747911093461,30115.422155265318,23507.10850657088,12708.984661179695,65188.72289261435,32696.84156374791,137.36394270606183,11.139547113616517,22.9119460888159,6975.896997592636,1298.1773333694712,1196.897205916,1,High Risk (Failure)
187.60945610195012,25694.577985039843,14078.668552456662,0.786796709064576,31772.701717534244,26684.731799497178,10321.19173965926,51688.54428629787,60204.06004359479,166.07566614285165,9.07802106119857,19.814984995245958,7571.491777726555,582.0744107615874,769.9729204722541,1,High Risk (Failure)
147.81738641237695,25342.833090668886,21966.167438589804,0.6636951389123827,59613.024369846105,14139.821071889457,9785.6612575801,35995.02542636049,41672.80482292591,230.84952714224193,11.646463449086456,20.254601361918496,3408.442293573494,1171.4238430733653,664.3521523561185,0,Low Risk (No Failure)
206.375344170896,26711.26780356955,22248.60479688924,0.9015856262098628,30052.200030519794,23963.768686793563,12346.825350984776,64784.19175034763,35270.27530021652,101.31911468391664,10.563054533779235,23.671024256792652,9053.7691222903,1992.5930175573467,1433.4946190299815,1,High Risk (Failure)
208.6175279752905,21362.76553080106,34067.05151342114,0.22238617619688839,35318.76966955891,28298.85120883789,8030.142261821465,37109.41091684182,24685.146938644735,241.36350214562864,11.665471866403285,24.131566338351973,3865.298361284485,1885.6249865249133,841.5483574059557,0,Low Risk (No Failure)
178.66036599230222,8824.08567887856,18234.307981072296,0.16306586736006357,56709.249126659626,7070.225724226313,7074.914847852899,56436.92013585598,43094.52266663,149.44117090732044,9.697846881658148,24.603253336161835,9548.154651998864,1578.109783229416,523.5500969790514,0,Low Risk (No Failure)
151.6867520990425,17058.118710552477,30683.906610591377,0.513390073528181,40877.12248997776,22928.747077095268,10967.592256897697,20318.344658528295,46017.27224164771,110.32347505265358,8.984948856748463,22.716385948241225,7209.167507681937,1359.2128702492348,694.6076011523318,0,Low Risk (No Failure)
209.3999076802352,27685.712596153942,18906.566699080573,0.9478050183624682,51989.38474585745,18006.114165254854,9075.094344807847,39276.51273552306,17560.370312736475,136.81307789982694,9.467418270625194,21.162503662197434,4196.335646860646,1483.1409571017566,1341.847272154897,0,Low Risk (No Failure)
208.75162437481168,18422.972330848956,26132.708644324597,0.9033410137067946,37469.181663656025,13674.732966215264,10507.438665712041,37817.318344033585,23352.239626985876,127.58554730045515,10.035483580776267,22.551845895202323,6332.496443449079,1229.1396986720438,700.4216338144838,1,High Risk (Failure)
75.57870300659538,23065.852715875964,34446.24179132938,0.10031949919327943,45888.55546835243,22757.96310477609,9826.877810621676,52273.86376519536,65817.76608827506,202.85707873094174,10.605098264247218,23.125687733612068,8189.734401001175,1592.5635813601766,890.5136353226673,0,Low Risk (No Failure)
123.13157045102781,29353.6715719395,19938.14160186819,0.2593799952211806,32003.969620277494,25328.619775362975,5493.700483772148,55330.48459151774,12890.078101088984,178.37020648799376,11.761840774225565,24.032235853198777,4410.438124597962,1131.1672792161535,560.1152908757239,0,Low Risk (No Failure)
67.55147227158064,28493.54517373382,10567.238082351432,0.6958946514633787,36804.19875963255,9970.517271268855,7832.91806481051,36955.16380310719,17051.009769026983,156.98081886792926,10.443347959172135,18.76234007495867,6869.475552606842,1964.2343869490783,865.3047957675074,0,Low Risk (No Failure)
167.31716990493345,15643.051318592603,33237.771925329434,0.3524847275980618,25366.54485411672,28677.97970617701,7349.354788676207,34481.813720166625,46506.74356007306,246.86036662067414,10.857087177430783,19.963107701826594,6370.973929832298,1446.2481318811415,1434.9028220693845,1,High Risk (Failure)
79.42182690550503,16089.385159550186,24701.68119370192,0.5274410455577785,50792.02400986618,17779.34621794337,12528.413070359335,22623.44441303386,25138.00485030518,198.1605388850271,11.472839991896706,20.248873457458913,8497.694807696767,1169.653163103541,772.9358792121277,1,High Risk (Failure)
174.53199434913415,11346.344220128285,17590.16876471805,0.6545222690109419,39657.58368317742,26244.91676634141,14761.848936149787,35299.391609295286,35138.76134057426,227.23028158846927,8.593490664625644,19.96905918853205,5459.198853302993,1594.3359743573772,1083.4339377276563,1,High Risk (Failure)
218.64524413238183,21006.98409608746,34800.8256516423,0.9754904983310557,54410.3601431867,24820.26404087901,9608.079881173015,45147.752337298356,46487.15410018413,223.33590459916064,9.174009511764364,24.52801818893922,5857.346348191233,1292.5553854533805,533.5421481779339,0,Low Risk (No Failure)
158.2293735616099,24347.70792718626,22368.096782210097,0.6131075959555897,39254.64040913824,21540.671538309758,1699.910645068831,63270.45866892248,47479.57563279462,257.4043906911661,11.694399820571585,21.526457418229324,5254.588064835236,635.2505023617516,982.6367415561338,1,High Risk (Failure)
178.54464898433145,12518.419703196736,13361.22036862126,0.3689143733536201,15022.94950571746,23696.430472974014,2704.358393644666,15600.671468623685,53573.673290933846,100.83243798449996,11.627164135331805,23.608591107492185,9034.210188145993,1496.0415468497768,538.4289408658362,1,High Risk (Failure)
138.21545284110724,26567.42512608691,34382.59619413556,0.8059293661594655,36750.77985249975,11705.00905220548,1707.2116515834066,34880.73687060393,43280.68564108532,224.59796442124212,8.705826691833819,18.84253937965547,5948.523187003294,1198.359958690613,751.2998466801655,1,High Risk (Failure)
80.74863651587765,10392.971024830997,12552.781596363442,0.5111605960413168,25713.923192005765,17721.818508906905,14088.094238569603,65997.56755466328,61378.955086087124,121.53513121387674,9.663046767489988,24.14325663565709,3282.2168283824617,1608.4110258129274,1251.5720446365667,0,Low Risk (No Failure)
188.61032723095147,25027.377527863748,7785.352595918615,0.7455679517353511,27542.044668612558,13441.392829773089,5674.077260643992,38224.26555547385,19716.50528027072,214.06418418496224,10.623148292758714,24.70635539691433,9349.436597289297,1838.170493032889,1313.7200898216088,0,Low Risk (No Failure)
188.9480640188194,2834.3488580617077,32164.68432473977,0.7488391884618512,39939.66218934972,24102.169574783267,1317.9975574953542,66064.0418808477,47600.203220285104,146.2513712630517,11.30893681804101,20.021426925232554,9170.451477366469,580.5448263864309,635.7966212342271,1,High Risk (Failure)
210.13051658421057,8489.666378727743,5348.798038560999,0.8307608668132266,32379.131604564645,14000.473955376905,11295.46140750035,56976.887364073016,10835.170220038732,176.11045400101546,8.426033050771288,22.645690424366247,8034.5856393071845,1624.9455202330937,1271.9112570169013,0,Low Risk (No Failure)
118.83452848950937,11289.121400035272,12811.920762352149,0.9591934864585215,51778.24177148947,25249.696875427257,1978.544803752182,57808.741695178476,62827.456087089115,220.83818244488836,9.695324359929053,22.389863904090355,9013.61574441665,1086.3673469954845,878.7097745652927,1,High Risk (Failure)
138.33991392803915,22469.07789447459,18706.83664947284,0.73792393747885,37744.87455230121,17183.563271329473,1429.7788150008441,11243.273024137494,61914.79737645859,150.36904716908128,9.663849300450797,22.844658245200733,7817.638051005374,1317.4860345139036,1048.8744803596967,0,Low Risk (No Failure)
67.73803376780494,16703.682181552147,10486.62952689658,0.6445251356703602,27919.678500964976,27670.22412091756,9819.83359030195,48475.85663133317,15747.029531529768,106.90576475442464,11.765155888390854,20.481571126237903,4944.694387885709,1637.749842963656,1410.4361156531668,0,Low Risk (No Failure)
200.93932147182855,21976.57881582493,10389.014791164223,0.06718519652390131,46505.83031051788,6525.692785810498,1223.6616038073525,40954.93131765012,28971.34120989511,255.02472787054808,9.371550079669804,21.799650256069544,4183.328883588552,872.8531606033132,690.5371204414904,1,High Risk (Failure)
120.45427419634987,2227.700283030797,7917.626475665972,0.8008867704791794,41014.13274459081,14336.006533708422,6620.691756525423,43885.09381769694,24668.310651232983,117.45415947770476,11.945137103250808,22.703128377904672,3321.4958530175654,1149.0028470732386,1073.7461643952315,0,Low Risk (No Failure)
192.5844649789263,5777.286257743997,11133.391011969888,0.8958838370675472,48607.192776709235,26344.075103121337,2102.6526508989496,19888.518924822183,39773.026582168925,140.0552075627287,11.908427894135102,20.332076216102177,9616.559383084901,1469.3073504597062,669.5740018620224,0,Low Risk (No Failure)
197.88569936216277,24581.11812997004,20753.07194426732,0.8744443882061596,54228.25895604741,19487.536041648105,5798.279778143273,59310.48363152167,22853.029129178954,128.7822065296079,9.057567909367222,24.79297267495103,4946.873483527748,1682.1289758162538,1285.198809868333,1,High Risk (Failure)
181.40420060117202,11029.028538978224,10361.183627978266,0.2984941127873687,40896.00999838441,15515.991439132946,13422.181378938798,64427.17624844525,22101.397582402773,232.80154585353094,10.590154178118008,20.644123873311077,9301.03034751883,872.0752248329284,624.9251812281208,1,High Risk (Failure)
200.33449296291022,5009.121403387656,30593.34167471109,0.8922308599488715,32734.21418574303,6024.89404595085,13912.53385219105,55053.74930176998,51895.742323829065,229.3970398756076,8.542957874125147,23.245639128456588,6660.482555584962,1387.8765169856026,523.2967664177522,1,High Risk (Failure)
124.30020339787832,12226.7847601633,28517.37141761701,0.6038953001447722,24035.921894348736,13785.316028249172,7622.665062461638,23455.546145829423,32340.501103280447,150.080401950093,9.6238901130717,24.21457538740897,7138.791388317931,1940.820988617877,627.2297179160361,0,Low Risk (No Failure)
146.83137330531974,2064.6753610089327,24614.89891483033,0.6919100266195619,34207.92550030302,11966.258513070457,1602.4785662937215,65108.16400608145,64081.73463052414,267.4320407680891,8.700098891591015,20.16200542740606,5053.222247977699,1595.700498982662,1398.2104790893004,1,High Risk (Failure)
99.7413773989132,24890.250747695598,6356.888927606447,0.8971304663109364,35243.91129126389,16249.373989446334,2940.4357266516563,10504.091456694323,16055.393004871152,195.94861862903286,11.252978683970891,19.341239650505173,3100.6177850208383,849.8118696537153,1409.017500789511,0,Low Risk (No Failure)
157.6992067906612,9974.414716939289,29284.196288463034,0.5203722164409679,32020.03074777211,9832.849931130364,4822.155653302958,11017.301289443722,30496.827078516842,161.47486544800577,10.120875794049145,19.92316240993613,8289.137135959681,1479.9159449215872,1392.2130602010316,1,High Risk (Failure)
97.989354939969,15060.903451767004,23319.282527649342,0.3192110358872725,34540.249964683746,12809.932096679873,9466.018514155614,21269.30865968064,57177.76336678837,241.0707168953689,11.567202579654248,24.496560011168498,5253.229203508806,1014.7047024751694,1090.7166590906518,1,High Risk (Failure)
70.99418843583376,10794.69190531057,32817.96897894227,0.7273535170759595,21895.454410557504,5672.603846240846,8179.758853498409,43880.73648760583,15061.335629234181,182.67294948573345,9.865589772421737,18.295515186445467,8558.58944872738,1284.6771979911932,1400.1860712581115,0,Low Risk (No Failure)
176.64114688655798,16022.30250990684,13224.08501575815,0.5229873081917097,37199.68245584461,14224.255238388432,5502.548403581503,14797.16147465354,50978.63407455526,120.17533137228493,10.338382163386697,20.993994438376724,9055.568188288296,1260.198439844092,555.3726689161797,1,High Risk (Failure)
84.45746226949312,23662.400573886567,9175.63408273961,0.8175945469515462,53190.58041188505,22564.78579829639,13772.22317791677,41896.30789902396,64931.31969957908,239.17299582124548,11.282857400365803,22.41220666716757,8567.9318188944,1025.1545398908493,1443.0880632296453,1,High Risk (Failure)
86.18495085851272,27788.210480426507,24020.023022479643,0.2172334745924347,37602.60581708375,24929.550710197313,8681.434928062297,59597.59704097646,41145.99607897291,127.04855179297678,8.965222738716832,20.85226295734246,9088.940172778037,1953.8018940991856,913.5997735444071,1,High Risk (Failure)
161.55906257664472,22944.442393232617,30073.623093566002,0.8772033440940048,58866.34952625348,27767.39491065947,5100.647647219746,25252.212675394367,25225.71114811825,243.6728205323531,11.907428502333143,24.386300744150702,6060.373032102858,1070.4215792746897,736.2025972050856,0,Low Risk (No Failure)
191.24053103118234,11220.549214626406,13067.129136844442,0.07621839344504822,43417.42272092797,29943.610525171265,7847.436144565341,20886.880852832983,57987.23148564767,107.6018667410924,11.881254634642591,21.159241976029143,7608.898792937786,1171.7788279350514,831.6400712331845,0,Low Risk (No Failure)
62.71162638233296,11303.399653360244,26648.889080140998,0.7745602499145873,59860.990018399774,9282.893845819955,6574.425117595308,57426.28615277526,42539.56163428895,151.72144446923468,9.827532099584033,18.2294743320844,3415.694060272063,1382.9354964130946,1369.0675545242407,1,High Risk (Failure)
153.5268981215133,6782.043751308182,17760.658229860514,0.9532763907787299,31145.903572080868,6141.0599881827575,12753.335849992553,33181.922263389795,12217.677042970103,142.52059681121958,11.816934271839202,22.023795652632607,8944.068621728868,1545.4768456523193,1424.5711215444203,0,Low Risk (No Failure)
130.69339276831272,24361.843966795775,28088.004538841968,0.06380474409793502,47108.71647170688,15681.797662583816,2652.281056331805,57271.855011865664,55199.27725412664,238.629095119108,11.793186096840296,21.607720577198624,5686.668318203439,1226.707419315592,1259.3248252233607,0,Low Risk (No Failure)
79.26201260625425,29421.50634631806,22743.497943290746,0.6168498512759222,51775.18885918915,6356.744342913848,7280.572393929005,14754.951186483127,52545.9207997923,152.2537741994014,10.533259271152817,23.66376726875418,6584.962651154888,939.9994598952612,777.3405470997941,0,Low Risk (No Failure)
205.81427041258092,14168.801207948562,31841.423142668387,0.5636586996350151,23731.34767078219,28924.96682849494,7889.634586678648,21055.92619154973,58268.1251477402,216.54880976968207,9.32358956149004,22.283012685102857,9810.004310971883,1390.8418397848313,1239.5966045933606,0,Low Risk (No Failure)
209.8915939252947,28828.172280667786,30647.50875679313,0.4688929855087839,36869.482255465766,12338.458468427092,1357.1063713519843,32023.48729184177,38684.314266871355,110.91715604260469,11.766407757522526,18.729292536604518,5091.738743258795,1357.9140007771548,1292.5559220991167,1,High Risk (Failure)
110.58497679628007,29662.74643492556,26122.570059270063,0.6699491810030801,50575.030744318676,11819.661767020789,1303.6439962680502,68819.2895501852,45644.32925953472,101.57167534048163,10.45530342072589,19.136780050744626,9409.300074301042,680.3513049996009,1346.1524437415655,1,High Risk (Failure)
86.08565390905456,19474.3790516052,32786.423161957064,0.6412149902350247,52962.44231118488,24684.465089752488,8379.414268053988,30732.205461740796,17903.242531926637,137.67918919941556,10.023066550883495,24.01191253184816,6345.680273404065,1827.0463550642978,1318.3595013523131,1,High Risk (Failure)
171.031751114736,19916.15227173494,33771.319906142235,0.0989523016865349,55234.21981003733,22387.906408687348,3525.4726256127874,51735.180882496206,34728.6235438433,141.77794525329102,8.970079436350158,21.416870868442444,5848.895574965802,1744.511578713281,676.9216425632915,1,High Risk (Failure)
73.07605531948452,15125.393785383761,9798.224071007859,0.13706269597417953,18421.532848888553,27621.302545003236,8155.466868754105,18170.25356122437,69600.90763812406,258.0267138830345,10.410186558720952,23.48432767743663,9412.398157128675,1967.8512179900508,1084.8097930109898,1,High Risk (Failure)
99.25637026659376,24111.47761645373,29823.3720793884,0.7410857977382197,37435.093812679916,16526.64223024041,6400.007026440289,29479.976744346335,14402.43741004408,111.58807772322118,9.389104277656205,24.99957787232003,6224.958211696663,857.3295709317376,814.2845247131513,0,Low Risk (No Failure)
165.9701981969152,1537.2127256327203,17269.59511201503,0.1325487791048744,35995.276731446786,8853.773666077803,9714.08210509825,51062.08910077483,42993.90675845125,174.29205267739388,10.666440473615555,22.499945750098455,7853.966990934813,1330.565693946576,569.2907249336913,0,Low Risk (No Failure)
205.97813529867057,2882.0791066138745,28075.60369987784,0.3612227352342863,40095.2357116155,15770.492203966098,13768.28005807158,49881.70396177059,16553.265303251872,222.42324683198305,9.575210976770006,22.12529729497421,3555.327737233315,1618.1929934871052,1429.2883069351797,1,High Risk (Failure)
124.12208974005216,21823.976674824964,7574.323151283165,0.5637176795476178,22888.990973158783,11112.810379851155,1192.861003333972,47901.81287355305,25095.363644250694,151.324805550595,8.798034635975606,21.863468993253754,9408.464687785608,1488.2375428038322,1226.7291772963663,1,High Risk (Failure)
183.1108127074491,28756.10578400149,22702.80198464023,0.5410709207986163,54805.70428861953,13838.220172195099,11269.69011561329,61909.67640259277,38968.03148814688,135.85459222449728,9.252473689217059,19.39589920905961,7183.377299193908,841.6120640961857,731.0106898308477,0,Low Risk (No Failure)
138.22365308679224,7531.0059062698465,17746.037812040333,0.06490669621466982,44399.185114611595,14052.804524521833,11755.956394797828,66658.04919398898,55438.605629072365,127.84181543479632,9.2627230660118,24.788757601673883,5314.62432542247,1724.8191934400927,746.896314179661,1,High Risk (Failure)
134.45390943031776,26291.07584865085,26575.157685263755,0.26498077291688305,49290.44732149478,8921.307297409261,3734.4437476070284,50343.275527697704,65772.83705948987,238.10799396290003,11.144075537701834,24.4207343133722,8708.320222123742,1993.2733129407616,681.2420140090719,0,Low Risk (No Failure)
74.59297648779045,29272.223911496814,23030.7763246607,0.21586639765948856,41780.27088710717,27384.791502002634,2502.0732508872597,48743.33287887837,52538.7783824915,111.63376156802462,10.269313706626804,21.535493358870482,7633.593788722633,1191.2707107599012,837.6069915192077,1,High Risk (Failure)
193.04293329795576,15832.558661235906,19077.34837611619,0.5590030700748307,25136.960041277474,16848.737896232436,9734.58976661815,40011.84075187022,13302.363623774421,257.4755938694028,11.878284733893311,23.068032262497248,3799.5352297673144,936.1829131643912,1009.6655880504019,0,Low Risk (No Failure)
182.48206383857757,28460.18408435499,8013.21253585898,0.07043998597026035,44834.81533795054,21528.025191553737,10550.167608083793,53273.76561292376,17787.116641884346,212.75475471019396,9.09358460765133,24.28433640530369,8709.387255050955,1029.9475237241795,1068.573401627384,1,High Risk (Failure)
180.72685985354917,26144.745288989474,19754.339669673678,0.6844490484631971,43038.19650311336,27361.719011886096,13906.26288696962,64996.00454694015,47365.72683809442,280.98632161175146,8.951771384437382,21.823082380393906,7705.8180315082855,842.4014350366031,1444.5842706893409,1,High Risk (Failure)
161.78837835331723,21376.257716699558,20330.142906337605,0.8896013951243946,46465.754749600026,16318.886281872889,10178.396769164265,25201.598361012046,19196.74826562705,166.32864011306322,9.745563709921052,18.008637295990034,8016.148679623999,930.8608613447433,1213.3252942615786,1,High Risk (Failure)
87.02961009154633,8776.153658745705,10811.00878357106,0.3413092404898934,53303.86893654428,8150.950766719785,7756.350135908341,15461.52612102322,38680.14876149862,249.6681829291067,11.791349419988814,24.725273664413557,6458.907337047862,1418.6880052233514,1149.6328496513675,1,High Risk (Failure)
91.69562124155843,20334.556806497247,20071.95583530607,0.51631656166117,17488.53088477568,26343.215949109577,6803.368797247172,20116.367507414645,65446.86900413803,129.8703840295536,10.171531355486222,20.467097419623443,7546.716647364693,1420.903876701559,1284.916469305037,1,High Risk (Failure)
110.21228931590649,14567.924416390637,17921.49864824031,0.9564007794334166,29216.18771050362,5406.626852936081,6692.246992262728,39990.72770713229,52695.11710688056,257.72563859830825,9.135371125059557,22.610954208638724,9261.064585936121,778.5461936367731,1371.514775453142,0,Low Risk (No Failure)
188.78508429463017,5952.27954009677,20270.065506102146,0.14386574280684383,29153.056666767592,5565.386454104658,11660.287080055128,64548.17722767565,30475.15956723101,218.33063206666702,9.23848655506068,22.550218329142865,5335.998481525612,1269.2644838090505,810.5832319290514,1,High Risk (Failure)
183.03798642888168,5737.279042551539,22905.70582353473,0.2635114506489049,34065.438432803145,19561.87668885266,14478.90162759233,23930.152881196547,46419.981558747604,262.8964098698703,8.241029434735061,18.432642014937247,8205.58607724823,1818.007961370439,1145.0245979351994,1,High Risk (Failure)
103.95704408312312,2139.4664093700812,17589.642345770153,0.4986244632662835,47502.51445663572,27993.660839177657,2874.9409168223447,54844.68809962759,20360.491868963796,228.6193642042717,11.43304098991095,19.67422762177722,8325.62948844113,1367.003879398511,999.4800010124559,1,High Risk (Failure)
70.45858521030164,7996.085745102808,18468.663124347127,0.9328120149702568,40487.18102745933,28103.889665200855,14341.113789524172,41059.280913392635,13006.566342464055,156.9961559560526,9.069862183338651,19.34905065539789,5150.470815863321,1423.0255089732705,1016.7889073344694,1,High Risk (Failure)
174.1359337415284,22942.749931219565,21652.478043129533,0.42835028381315066,51685.88734813025,9847.397859584471,10802.150102312036,38656.475957720206,61819.51065257746,206.67866383019006,9.27085553423424,21.25127937031141,4962.107844078894,1270.144826272046,1024.064376359136,1,High Risk (Failure)
126.47088009473434,18347.29092071807,27023.2094264338,0.28422585063754247,37861.22919992194,12162.782147492575,6886.44113168424,24885.50836010761,58451.75282056995,107.53594902172854,10.74784834507986,22.659089718393155,7075.724796135108,1620.1183761524903,593.4150662184676,0,Low Risk (No Failure)
161.2962331637229,27952.70103162546,31659.280080888653,0.24299759286082978,44936.8315945107,9820.779142833537,13425.774213248973,17854.595395463126,55720.66585691686,257.27363386888175,10.592315183244786,18.052743709980994,9561.18882578887,1912.677095070462,940.3899886650794,1,High Risk (Failure)
107.05079394828445,27752.467992772592,28114.680755038888,0.6300522021496284,48249.340217086785,16416.64284358349,3960.2851516778846,18270.7397777988,43419.243728898364,241.07273415722457,11.082360573704351,23.279410700255305,3736.1138250915346,1096.5504210526074,693.3088813596826,0,Low Risk (No Failure)
91.27328005894398,18585.88352557021,23150.09184014099,0.36282872472687355,18234.95511323052,19499.79392587793,10491.450536615783,16838.39512822055,32117.50654489983,204.54190775008914,8.62893324413933,18.38116741607398,8554.359092978773,573.9891675104755,1130.9970856511218,0,Low Risk (No Failure)
109.87377217430576,15203.790171658982,11964.017384004685,0.14331003627561067,29116.39371314562,6368.998279740702,3283.3720861226825,39372.381115138196,25664.185584022256,225.92388980788616,9.19197674075941,20.515753911484758,9854.536571590535,717.0783664311807,639.0498139951667,1,High Risk (Failure)
71.48412899624208,13106.000232997412,11255.826208975632,0.6523192015535509,29739.82941783429,25474.407950414996,11700.368538009296,39200.14646511311,59819.33148883815,117.60588789463318,11.099470021366992,22.4909811973579,7982.109413837597,728.1313567472414,737.5168831772227,1,High Risk (Failure)
143.01408914017154,2642.141163949183,22320.25175589111,0.6796758674906396,46035.9906298031,14852.864404636513,3187.9754191347774,59123.50825215788,39197.314414013366,270.4674219495441,9.770456632326042,19.973163943666837,6999.874733921177,1093.0931217254047,1017.4558997864372,1,High Risk (Failure)
161.0270273949402,24136.268794049625,19510.413372735995,0.2116153273493815,29517.542764863792,8859.337281018468,5557.138393086862,39868.28483071029,30788.836589694674,174.63757871011575,10.992348759487086,24.175618939229473,4997.249888887436,952.8054497559199,1010.9458067443404,0,Low Risk (No Failure)
162.72506338468605,9830.222306266882,20638.032614721975,0.6368989721654803,17701.63408510614,17367.12872041455,13737.95534757404,58887.07203787398,57282.33846686884,141.32620587337155,8.005933161729,21.577898028312465,6288.898774872092,853.0696673783691,501.8123934538119,1,High Risk (Failure)
219.6513369091165,8524.025960974213,10670.512020036627,0.5087402894301419,49230.133717540004,13557.067816658056,6358.376602100428,20552.59544727924,26531.480671895977,158.8278489897453,8.044436123802754,21.717500008802187,9709.268565342436,1400.6370020650895,943.9050903986453,1,High Risk (Failure)
86.03195900937054,13513.735475581629,6664.72163213182,0.26918644017168725,36281.40525878007,25510.71397398596,13117.230488470337,34448.80507102827,33609.88513493317,299.2130159889243,9.641525060694573,22.923637131490775,8296.81448015837,774.489198299028,745.3517700100551,1,High Risk (Failure)
171.38498322206803,9175.95700079526,6066.556326471653,0.14462833812344744,15511.80147020919,11206.33828803125,1889.7567795591258,66639.47028589278,19626.051856925293,191.64349665519393,9.026811785934836,21.058684145160402,9196.461977503848,1694.4356091260831,1491.902549194355,0,Low Risk (No Failure)
178.66263229376676,10990.670908427834,34059.88739440213,0.1352286541180523,43948.61153223824,20290.226569874838,3287.5516589413855,41314.71581660996,22563.57391888346,171.48959095318742,10.495903697215262,23.389888814908897,3883.4794094187073,605.2112293514158,1390.9232111390795,0,Low Risk (No Failure)
71.85686761197873,19688.27191926468,26817.26958709937,0.9576043711161709,15134.105885204892,14571.569917373574,3119.5084985822627,42491.402895698215,21084.648094359018,206.50585974952975,8.520751097224432,21.20485466231975,7056.889320586406,735.457323049517,849.0582871819877,0,Low Risk (No Failure)
112.03041027595118,19226.613102423467,19443.060378728165,0.20553847069548647,32477.327009103326,12011.9387910612,14786.425279644453,23464.14493549584,65735.4854845994,206.52223839394895,10.147068535914523,21.204152195286724,9137.283665709938,581.6263960637967,682.8127508067823,1,High Risk (Failure)
195.18004975511272,17718.17819105611,10351.947557857431,0.8420387836055212,41176.07631364561,25000.462036210432,3993.4577590387007,40889.78689348129,18763.84689613315,222.18755728592166,8.119401413231193,24.846053121014197,8151.563939958924,560.5838973534275,1146.866369400544,1,High Risk (Failure)
153.31052868433562,21897.006161748483,28427.995393714828,0.5373455884130005,27890.916771525983,24190.862053904137,5454.40717221796,60352.528877733464,61294.99549161655,183.3966704297718,8.605361548730489,18.718611695618026,7718.446730919817,1956.8664897814845,728.9871493986142,0,Low Risk (No Failure)
112.30905861409266,25693.186267749854,17896.48274374544,0.8976140083423853,30410.532838348583,26572.165206237147,6841.38798127873,30552.10414889794,35456.03555725673,247.14252202660657,10.271618119158619,19.193835306359436,9810.697255355615,1526.8573297824455,836.197408906027,1,High Risk (Failure)
95.2293123119698,3247.025170108998,25366.3469717179,0.056952867295681164,44149.694478630205,10565.322809339006,14963.935628735251,63330.37493616221,36562.718790388135,241.41454172653346,9.062735642804125,18.543990754130615,8625.543051642027,1102.2268539677752,1419.8467471931322,1,High Risk (Failure)
69.30620728087612,25853.84182158676,11184.384808404922,0.9556554252415336,50192.08363333456,10335.360880422424,4541.0645032831835,26841.497201436778,19465.09833269872,278.025622694608,10.124405128176655,22.227120616275194,3387.958781682133,1309.9510628212772,960.6010310719118,1,High Risk (Failure)
155.4963003020415,1641.899079855415,28356.374642680672,0.6067476903255307,29661.804559755743,16504.385341273373,14899.645128353577,40137.88668145043,64191.521262417664,265.6683339421022,10.316966255564369,18.984866552196863,6276.987815103668,1795.9226109459466,1006.1353806430725,0,Low Risk (No Failure)
139.34011761260334,22932.99281242853,13644.48467100125,0.930254319985056,15618.472561093073,14677.776383808956,14449.011507141662,60421.55045793225,32421.45671246706,227.85834569215422,10.128230240976851,20.391806124089992,9454.007721738411,781.9935377769677,1469.4026331109294,1,High Risk (Failure)
198.95487614366604,4174.9886160008255,26503.931500981118,0.8899974825811321,57399.029766444604,15502.913048986098,9265.596723436189,22122.767487754063,18644.837928457113,227.19233599812236,11.532352896347303,22.69874681517805,7267.977269390699,1516.1997281789481,1286.3416339967855,1,High Risk (Failure)
206.28780904967985,7150.355886843954,10943.125827232621,0.17264064078029118,21968.69988847118,20522.206729543694,13587.779414092565,26585.72709920699,20356.007119065594,247.90109080509197,11.483160429058216,18.21405363932589,5616.816427554188,1238.5367653985195,1463.021987728105,1,High Risk (Failure)
158.68537725640658,2842.535950293639,34851.58257437742,0.7487733218218078,39726.351585847086,9558.23074541431,14119.628843208806,10196.975217292926,49708.401775305414,101.72828006741416,8.373373589124604,21.7439063743372,3226.29501067938,933.6541597360065,1395.4567846978189,0,Low Risk (No Failure)
140.42864371661784,27078.218630386873,20578.402471858142,0.7616813559803183,25283.631646803497,28749.152202268433,2034.4900329894751,54774.75111561173,58866.708537763385,239.03594930511176,10.411371626302332,23.73574048457779,9663.681028388237,1550.352098392862,1125.6458231356442,1,High Risk (Failure)
199.39271716208833,18184.477300179977,26085.524701880975,0.40918937471979877,33330.46884765843,11938.311855263177,7484.0024236059535,55950.333273458535,24081.24481310443,119.72360393115058,9.342331308913923,20.392748878346207,4679.040077406239,1573.329380396649,807.1225196559517,1,High Risk (Failure)
126.75094697033224,3552.1747978321155,25372.072969309058,0.7209553104836723,40798.38165389988,17117.56896692313,6411.163983792776,39508.73163824036,23612.42013721924,105.67289219599499,11.226873040755576,23.442355425127907,8174.132726302836,1568.1652706156249,640.3031982376574,0,Low Risk (No Failure)
88.01970242085652,5671.900674436245,6006.775449417534,0.2199802048981815,51484.26606664373,24923.63909054144,4574.893819480294,38731.4847116832,37658.45386930264,287.1421269938641,8.414470972983125,20.0587047988244,4840.270909064951,1739.0567148505436,1101.6732898455791,0,Low Risk (No Failure)
92.64570154062382,12123.45433921147,19976.345105998,0.8300653721957794,53599.51917898838,20746.10442198754,14262.157487500019,15303.834815297665,48196.83878293652,110.15254176270855,10.258183946535139,24.483487052187954,4092.722398910998,862.609032723449,872.4087537491812,1,High Risk (Failure)
134.02809681046296,12705.754140310855,27164.823120535384,0.8678324967344967,45059.21870232275,24835.488179715827,1394.1395306807653,50473.58025332514,58678.24064136686,124.90107866748185,8.309454427336702,24.24866020426557,3210.9431092419877,1225.2092031345069,1329.5751606418908,1,High Risk (Failure)
181.758521604495,2095.7506912747103,25435.176513185146,0.4490879571685771,53709.253674302694,11162.313126757017,8982.94428502512,19603.139062411,38935.83299877256,277.4801380512888,8.448495519140476,18.793338694204955,6293.980986977393,1624.3492078484883,974.1288901284929,1,High Risk (Failure)
162.0091954168341,2796.44903879065,17502.471818721595,0.13523982798472256,18017.953284361905,17152.38257987558,9350.659511530617,21569.429035800804,11901.33097247918,274.409569994124,10.673493623941564,24.123539363145476,7234.9823206226765,850.7189808649023,1004.586409539346,1,High Risk (Failure)
122.89563594668167,26645.95941116734,28712.22427648964,0.34886209677027313,18151.585139902425,24367.671700389037,10909.048196738646,51064.93814888303,18256.550323717685,133.02802751446407,10.850781090454657,19.021839669764343,6366.936970199598,568.5893732444009,991.3309247431228,1,High Risk (Failure)
118.00956744945512,29791.315367394418,12415.242337835527,0.2785627134497355,48608.11387022897,27841.00216975139,10027.740047908956,33004.30962207031,32745.12974352842,189.5347357517726,8.330625618852778,18.985844567091924,6979.5690046855,598.0946311090382,619.9530608486932,0,Low Risk (No Failure)
116.68341235475451,4648.267754035488,26482.757534945405,0.7739805962669104,16892.96312468265,20767.49516694234,11484.541193515015,34650.436865650656,34436.66944469888,154.1516286650678,11.764187403303588,21.9396342405182,3747.402791509441,1801.191104594735,871.7033053840664,0,Low Risk (No Failure)
181.99338971851049,8332.284620018389,22626.85316449395,0.6319820929833062,56912.08736719291,7240.816952748217,6449.644162634656,56739.13011829241,46903.23184324659,292.0508021713749,10.101239831398873,18.557809089520674,9773.07124817688,1887.9527251773316,1316.782158815681,1,High Risk (Failure)
191.80646147540716,2972.296726620195,11029.220983737188,0.5041484897283163,40901.89869450579,22471.480763247353,6141.29412671397,53360.08815772437,29068.86240410538,271.3823294040591,11.948985762971342,22.041316456271083,6776.941832139677,600.8307398573442,690.4758351042609,1,High Risk (Failure)
69.02007946414834,13615.423235866478,31763.36047073244,0.527436084929228,57152.376569730804,8043.364224231263,9562.889356126998,36883.86904957083,25001.44236404367,177.76449037738197,10.846100104649782,20.171333581255734,6944.3577929655,715.3837328144878,1143.8856123439716,1,High Risk (Failure)
157.09551288642226,4916.105963735876,10022.688432387537,0.14791113634552877,51901.88060394101,12117.482377487608,14372.821547653677,26180.290098371537,23788.470438684442,128.32345139458073,11.084685655464709,21.455852220289177,6148.351087877432,818.4916249832553,1073.970354910692,0,Low Risk (No Failure)
128.51193838809837,6540.802041044387,28533.24626212187,0.043345619927325774,41266.3462261537,27535.455909483648,10143.575522837802,68796.10208387705,39017.3610326701,254.04132468974203,11.382870646195258,23.37127450269568,8594.404889610492,776.4192411604611,1389.827625552956,1,High Risk (Failure)
96.58284888055404,26171.988164957605,27138.593607588155,0.04853345072966897,58413.190182088554,21371.91847078463,13284.047285390026,22223.473608468004,29485.996860341118,223.93050438094122,11.912714244959288,18.96948127901314,7640.2231652851115,1049.4966091873262,1236.878887817708,1,High Risk (Failure)
115.81128543511669,28424.532574473335,19592.77505078215,0.4116507968016314,30782.25228714746,22925.682405452022,3643.6023131552793,45117.87327642899,27577.174428290626,164.99743288927053,8.541591405631104,20.21666496220022,4919.02946542905,951.425590930814,1342.5641022780278,1,High Risk (Failure)
176.3470511626093,24910.995024197946,31148.505389865506,0.7469746046867705,41359.21612669011,10203.347435470234,10779.854351893458,45344.255713183455,26858.399794489975,162.58419596772345,10.053358649828205,18.000059025479132,4974.86021020204,976.9650229115077,602.9402185959304,1,High Risk (Failure)
189.09355828276225,26039.51575589215,31797.0844162984,0.8978310796014195,17088.19613606196,26335.581737728575,13937.261819023775,56565.29484688205,27119.411576197675,150.62604072220236,10.390235896300483,19.846946763304807,7559.9067003866985,680.118973587082,587.8011798992507,1,High Risk (Failure)
135.46391852009526,16436.99763801741,27714.99876237559,0.2692845198087094,44368.33362338507,5362.217153982217,9004.742732294657,18832.359128415566,54699.403157005094,126.8612655407204,10.883661255804174,20.86945143645881,6690.773405472137,1810.1329279190772,1403.8845456183244,0,Low Risk (No Failure)
154.6040697191887,4490.9663356604815,31692.0600434917,0.7129588155595261,36556.213153908015,22742.058076432782,11088.778091364367,25980.110463402896,15603.639972966717,174.99706258727667,9.793426005150332,20.543881949661053,5273.2343303936395,819.1675241649957,1474.2268368983705,1,High Risk (Failure)
215.7412190663714,1011.8983937360713,21552.52648818654,0.5482159106549206,58843.66832266172,10067.472708755264,8197.191047019078,46493.635374117956,13965.474373748266,199.12893391425496,9.986934620128782,22.879470905565015,7587.321986138891,1525.4274874549164,1223.7304458151873,0,Low Risk (No Failure)
219.30097751982134,13070.293899937118,27647.95199216715,0.2420399927760466,53052.21577942784,21038.40910613884,12142.114266770459,15478.102396403938,38237.13545766972,241.82644263207783,8.23992406767838,20.789273413387566,8493.93860088811,632.6775054542129,1360.5975181471379,0,Low Risk (No Failure)
190.06416146081241,16817.41055613968,27451.890686292292,0.08747960575092806,26073.33640245728,10337.784203025629,11799.06916276476,64565.57412124734,34098.484537912445,122.83118079773665,10.877572485676298,18.225894325925434,6581.996281939364,1437.3743329238882,949.1064433167545,1,High Risk (Failure)
72.32932466149299,9990.986696361051,19530.287068163743,0.5151376734611006,53135.520835350864,26495.187050404704,11415.074934074697,29140.091855252427,43438.9922242096,150.51468005962755,8.481343995378431,24.30006344841378,4662.168943793597,762.956321692713,799.7497389390659,1,High Risk (Failure)
87.18096096811765,24289.1936277946,20296.777271926156,0.3638327102683854,48300.24923740706,17532.79249687551,12057.094837403632,69894.08341366486,27884.386197547105,105.12617000062721,10.824962562466027,19.429777901665194,5652.107608473425,1214.6212176214385,988.579925176763,0,Low Risk (No Failure)
190.7158251634939,20952.88504960746,26916.27894489737,0.9065306321194894,24515.6779224099,14275.20967661977,9531.489303208593,63558.696387826516,65382.86097035956,202.91892252703468,10.435566187394015,23.092886647946216,8842.375286082097,1643.759925966695,1437.7866381857298,0,Low Risk (No Failure)
73.60902167827858,19499.9841978103,7777.282011562962,0.4553677335035635,59036.44901324019,27525.881257961937,13213.159388525923,39791.444473910116,23815.27185301989,176.88228172977625,10.52372939069041,19.414744534291167,7853.451499052265,1298.667291687523,515.5847384233359,0,Low Risk (No Failure)
165.08097015592912,24239.774528445465,6268.069827078037,0.13126221109287095,21307.03897659586,23014.3442014992,11861.90780007337,53195.2871302273,49243.739437438395,249.62039155471246,8.78077532925328,23.72138952324509,8351.843027105697,1219.4744451945649,793.9219559806522,0,Low Risk (No Failure)
63.61032187285556,12469.183209323535,18011.836486879332,0.665534000170014,57373.391377501,19920.917799898547,1339.7736578514132,65303.749299350304,20163.635341592744,220.714793155237,8.189799602165897,21.23309311538635,4863.730593829124,1107.7919072266177,1393.5273151405527,0,Low Risk (No Failure)
72.57255954480331,14114.237902949824,26213.61841833143,0.01729397576708258,26564.264811936715,24934.38436925451,4029.1732482837706,58741.488318408876,65746.59974823544,115.47328282030634,8.11348087620859,24.896485765025414,9589.11730830832,1166.1195759608308,889.8611469718904,1,High Risk (Failure)
188.63336120840324,25359.948474074343,24160.972846495177,0.7948302616043268,59823.4612108469,9565.285314403638,2300.183972194428,48846.89334205145,28615.000088023604,129.91521990763576,10.623748873505761,20.677740623071205,3134.1338368794823,1162.15419735673,651.1001698718792,1,High Risk (Failure)
140.8330837722621,4551.96108865862,18615.59767055157,0.5273935140878472,15682.784287732564,8972.687049518358,2529.702798696114,52644.78242672174,42479.82155518572,264.47394018183434,10.441716862542728,24.124071356455428,8494.764272196513,1902.7667804331463,1350.0981831583604,1,High Risk (Failure)
91.22664275498407,20650.72428088823,14440.669216139797,0.6922553895959047,26419.317555524765,11829.165110289423,10535.01347537094,18621.471843643147,52490.29905218097,157.22320422488468,11.268826616202915,20.551807467610352,9783.29055091078,544.9004123817118,529.631851847085,0,Low Risk (No Failure)
61.021739474693376,2621.864153718544,19574.616765811974,0.4396172300088649,53974.7952587044,15909.83148574605,8108.60102202624,39750.58619725719,43162.35055877095,112.44786142481193,9.801190728473214,23.67233241343169,8041.437809805826,1746.4617951425018,720.0598375663935,1,High Risk (Failure)
185.62815382288218,16300.051224892804,9564.436607585496,0.881189236894309,32344.088013898992,15465.846401199477,7657.822333751911,68402.11697440731,40923.57828359482,258.23440666019343,11.147906688913675,20.914226190014087,9815.96285952975,1441.1884066012724,553.1490156834046,1,High Risk (Failure)
214.17919633428045,14249.754080380739,34524.948784496446,0.7992271062915269,51360.51390435481,10764.172055977024,3120.578463645016,40540.39909862452,58419.276895331495,145.64925979797752,10.742601802254008,18.0748029728504,8831.3785683668,1107.8609021529887,841.3826339672049,1,High Risk (Failure)
169.41921998544512,24312.656553322347,7260.323527194522,0.747671770080158,15380.898972778929,16879.399323170393,9418.825378699134,16963.27712814449,64348.66494299719,164.91776582999677,9.128124943708192,24.615341683311232,4384.567955518059,1296.8362240353858,792.7888640257922,0,Low Risk (No Failure)
143.21088338844973,16331.041515688992,5028.29127582471,0.4454054285778348,23807.103671771933,15021.580970123161,11731.747184756234,13680.315932755118,48315.8010814355,286.9501362519328,9.683335144002324,21.607819954614676,5127.8140793334205,605.4179686178431,978.7668881222494,1,High Risk (Failure)
202.73355023043752,19447.06340466494,12184.661437103896,0.6487334824453981,46849.21376214317,28443.499591843898,9795.499173265433,32672.064487053125,38223.4453936123,145.4736867386639,8.006521007737556,18.995537580998782,6235.949954592448,932.5029363345112,1061.1745292023493,1,High Risk (Failure)
192.75868859315227,26502.39864740867,14600.329677411903,0.14210695983258237,44963.54448260447,26232.145803888045,12501.044014627429,24326.465138935615,24303.585644071514,106.27003689506569,8.900748591797836,24.978335167492585,8444.939611239515,1144.9703264764426,1239.0625237018742,1,High Risk (Failure)
70.24101545737935,12163.802956489157,8734.966948038435,0.013122125561633502,36639.03563863016,23134.38533311437,8897.968216416157,25466.0245363073,59818.596495097925,185.98815943896395,9.912560437210892,24.2799647508335,3724.868661253442,991.8848049736682,848.565512665534,0,Low Risk (No Failure)
77.28412066091062,11559.510648403657,7870.06131284638,0.6015620688219003,24171.840608319748,26356.510927327643,3508.6967199750675,49891.62945480279,50074.51625505581,131.46849411218813,11.282063959152538,19.5592615491736,9306.095666369303,1644.2572807041988,1161.9122336922287,1,High Risk (Failure)
77.92622434688838,17813.992471155696,31251.035937357756,0.30510919021208216,31520.809024661397,10763.378049792937,14792.370634721497,30894.215857961517,43886.90769598435,217.2380709591852,10.539385637460338,18.999732467088013,4410.274690791477,1255.1053548140637,1122.7930603638329,1,High Risk (Failure)
118.09316742378161,25899.403102492448,21164.581017490073,0.9831622899114084,36907.324257183966,17950.111308931333,3842.8129687995433,41522.30237056938,65050.24783363944,239.06210796424955,9.508908259432118,20.25951929290262,5170.042795127515,1537.4801618276258,1134.6421614802834,1,High Risk (Failure)
211.56533433789045,7131.506481968424,15333.1486528553,0.9593239045082137,54207.943608059984,10148.303757808633,13648.2060630175,17887.473526978585,40735.24380258992,189.74651949761812,8.475640407500068,20.943184050016225,7203.699357979638,1257.2156467986542,1482.1758295739264,1,High Risk (Failure)
106.10952415352472,17148.487980902315,6493.015897657266,0.6314991066734976,45051.655776896914,17024.84098552381,9340.842088029134,46284.877686520435,64305.66225780368,183.0726176054549,8.591357190779336,18.338675220121736,4636.955540313594,1809.5208455722811,1153.0418624530575,0,Low Risk (No Failure)
99.45658159648394,28076.68827785512,22091.235517097997,0.5414293943049967,28334.861299133543,5347.2533741567,1210.4661406678395,38331.519178213275,64772.909606656074,268.96233899156016,11.546285082201901,19.10648789412115,3283.69357292836,703.2956466583262,518.9013829758035,1,High Risk (Failure)
130.8853930140191,20677.87290112666,26719.861524342137,0.5418809537726811,17460.288238989953,12350.746763866067,5121.697921023518,27440.469668394235,44527.146204684424,232.96890921967605,11.738686875950053,24.331391753069372,6724.682971331153,1278.3798332747083,740.6325675675081,0,Low Risk (No Failure)
209.85691076719382,13319.031258610941,14161.444459053911,0.4024551782789696,31247.686422518782,7627.891957473335,8062.806643645734,30920.36543017939,45807.89908800727,248.93658361601777,11.3626012989645,24.99198210127693,6323.77961127305,1655.8652468975813,1006.6960257744356,1,High Risk (Failure)
112.20062688658348,17154.37999957479,16810.285516670643,0.4556836665013164,25443.558968460995,29467.928426395345,12074.676403767104,14677.500648423536,23860.790022186957,128.70322669441438,8.805818295136454,24.92676833928507,8667.756613037393,1312.2944329003617,611.9551474695735,0,Low Risk (No Failure)
152.52482255938784,14350.30582090998,8269.999695889283,0.5364303967894921,24861.523570466117,5150.01954184955,12461.058498411134,61634.93356274676,44046.06828545585,254.72348329067142,9.954552218876561,19.984677415643898,6165.195729809637,1857.7435998231344,1200.2345556182022,1,High Risk (Failure)
99.03834294065337,2664.363466959933,21368.253932814518,0.04770834145387204,34077.727827336756,29387.1123337595,5532.858109713772,32876.30937671488,13700.147956883064,116.24533171995664,9.629582163915373,24.94835682142771,9825.497780490557,1652.598052893895,774.9873331962748,1,High Risk (Failure)
138.3124416444101,23051.601951336997,6593.618725970033,0.21096928971169937,43485.95487921083,28721.491254445053,3709.2415756867645,48399.353502144484,50516.39187721748,207.68835639936214,9.416958030671955,20.988551988685956,4253.627847870823,1965.684573204428,1465.724902522682,1,High Risk (Failure)
197.14868111980047,1817.5488729694425,27767.958458440444,0.7265261936099229,17836.173142419222,17666.23104196763,3151.0412698367463,58984.28697956453,48651.635537669295,101.81591838433519,9.521058132961544,24.63722930557751,7300.913418893336,538.1285247972203,1030.4613546480864,1,High Risk (Failure)
91.13960189132241,1111.0784245093546,24331.88486845597,0.5454742327381976,44589.96941250024,20459.88711063643,7399.530734748436,28825.52861610518,31452.514205559386,144.95306592249045,9.334951337458964,22.889781845258796,9647.252797611181,665.0204878116974,781.235041236815,1,High Risk (Failure)
218.32085334149158,5846.895131209909,20886.892809450117,0.7775750270390502,51137.07569519431,18291.99446474528,5258.838746933836,38756.707855775065,50148.57566168207,197.1554369232265,11.443577295233975,22.88421079306073,5978.0765420750995,1895.895059748868,728.6044897781461,0,Low Risk (No Failure)
179.61750082820018,25139.34020935533,11869.615559009351,0.9177956261106798,49365.73952023774,6986.142007472375,8320.88236563934,66249.47618168412,11150.374303185226,254.6602417633941,11.825873874415525,24.024485842491067,9518.723243463948,1934.0997045043384,1429.3976515571535,1,High Risk (Failure)
143.6904679630591,16580.994536373102,23315.3949227648,0.3761651104310777,35211.234171500924,18842.377151683235,7971.644237105031,52299.51302508252,12685.905122986984,106.61692689109836,11.243600162767116,22.625967351631317,3774.652056599288,1129.5718163969445,843.2765334712637,1,High Risk (Failure)
167.64233830599466,29884.3707180852,19488.600896499967,0.6081011868520917,52105.91416482501,18280.826524739878,3832.7075193685305,54239.31936653927,44235.12987188815,142.7973091022811,11.153911386857128,23.356686434100588,4778.371609830323,1633.5123960731657,648.8300952036586,0,Low Risk (No Failure)
106.23496398736935,22786.92039119463,5039.59606952989,0.3965785613115773,19625.35103507834,21971.143386978154,4462.013537464266,13332.76648729618,32052.431761731284,105.8392911031986,11.421327411426685,18.3990755867362,3440.1302988484704,1240.9999548461333,1055.1377762557468,0,Low Risk (No Failure)
212.0379766113284,15073.428387789745,12715.314080732818,0.745080171162218,35434.20950719496,23873.47912014726,8146.303285467416,24008.570424126803,20706.13891247192,269.933221761062,9.959054676582968,23.296872045641642,8167.607394953735,1009.9980659379025,731.7496878343321,1,High Risk (Failure)
175.75165085600017,6757.742907177848,16616.535712376142,0.11183980484161238,52276.6053253589,15912.333173581193,1493.6822534720561,58712.65351338602,26151.60522696968,286.90983969280427,11.294756996692646,20.345771349798333,8746.370566567508,1723.93986275187,948.2460476488484,0,Low Risk (No Failure)
209.29813301496924,11434.922118460428,30390.463395992698,0.47122333090374324,22700.508989125497,25274.214961750993,7213.641074088912,56652.811819022274,62116.11268193461,116.24697906616395,8.489594233523903,20.27930998030682,3293.5433673957004,571.3849099713665,1076.0692437111086,1,High Risk (Failure)
193.64839929427808,29554.979850134347,8768.381105609062,0.1589650940226306,27251.446172300974,25602.190304268595,14464.901641022396,61274.30841375877,69924.97069957401,244.84940945996226,11.881036746261332,22.677796988390828,7024.768395479823,633.332150066715,1238.9492630968598,1,High Risk (Failure)
100.14065598251204,15186.699021437851,6207.343118577521,0.8576112353255574,38761.230782859944,20409.49011539096,10001.3159500003,42598.764345851276,32881.1331295741,266.83019382848494,9.588562231088932,24.221140492803727,5164.853891691054,866.9392111899908,768.2806417908603,0,Low Risk (No Failure)
81.48397614436408,20123.27415864757,27850.247161825508,0.17064358875210528,57560.607237376666,24263.313675953643,6726.015975128018,49954.859980495654,20947.27286354853,204.98104535545338,9.678012435497857,24.196712302238573,3160.167232599955,1249.989182231315,765.318407250159,1,High Risk (Failure)
174.99833885656483,9558.156945344273,30188.88162706976,0.09929334629680364,15207.447118792568,8519.105467480505,6074.186802733417,60935.81370866227,51965.38685119282,262.7385273380133,8.953402361271857,24.405190444958237,3447.5186890487025,915.5023787762639,1242.2209291011359,0,Low Risk (No Failure)
187.24276989758243,3830.6911051607567,18672.07442025454,0.7230344308507957,25439.272668031776,9195.552353073106,2330.0418897275986,32907.14681565628,40341.560193839985,227.5752214196334,8.255323178029471,24.114170614985966,9440.625098965622,1144.8296276212536,752.4630909441802,1,High Risk (Failure)
127.97613485889391,2428.9359539003726,12825.05488411929,0.8889522556906401,40231.40178589197,21350.82517453935,9535.851586662757,45562.46459802309,28649.32778799352,172.8824542511305,8.499407508201319,23.664752222900496,8670.028530277352,1877.5972774764118,1317.9320218774085,0,Low Risk (No Failure)
216.6642488160985,15645.813338314241,14736.557180974993,0.18873984569850732,30277.76582723297,28424.223760846522,12041.785853748608,69908.43252846645,14395.98214132974,184.4584263367605,10.513041466155416,22.44421411148107,9690.870844486173,1177.0210454633361,1091.1027371441105,0,Low Risk (No Failure)
180.98613262323937,12948.514429598035,32868.4020671787,0.1455395313226463,53017.288122956175,12281.231362041743,1064.2324120160945,15304.77534328244,48356.8061190945,191.88531528075868,10.007224848450619,21.23485492822461,4080.5611174709356,1212.2237347286161,585.7341582503584,1,High Risk (Failure)
151.52778293908813,13479.176413229336,22685.161525262763,0.5473777534997463,50684.351249172636,21015.428105638952,1143.5720912942925,29570.38657178964,43788.509728631354,187.13428839950387,8.917399095764454,18.765796417538798,5365.8330724876,1088.5743651348298,1462.3623520880437,1,High Risk (Failure)
187.72691155346988,1522.9282849316703,17127.881451954592,0.2210658650472167,58563.29763886841,12854.79076371045,6459.424008936525,29125.391375006195,43515.04853923988,175.76586217169375,8.285776614002122,22.372184606763327,9944.373034265935,808.6596342112721,1284.7885064759241,0,Low Risk (No Failure)
116.87029397824988,7002.602787003467,30867.548849074617,0.3408857244691845,22882.493575488203,13597.827229594717,8338.265416470971,44296.2310346608,17446.6916496914,179.4888431071333,9.260592269803087,18.26597672054981,7550.535636388422,1067.7220971304282,512.6853433277354,0,Low Risk (No Failure)
196.09856925458206,23735.183664662094,23705.234298686664,0.509769673499049,47634.017846808914,12216.2121502484,1937.499294058723,59753.570820177585,42908.14314301037,121.10601256051854,10.071418032801587,18.67647534110392,3300.6219274370796,1381.1828743151243,1057.0401559292054,1,High Risk (Failure)
136.07611443723738,8229.565150133729,16133.349913297643,0.691177144577423,22787.78771403172,15692.752936719698,3446.8850540854855,44911.05304566795,59575.98564873945,250.30977833250944,8.237706094219744,20.08358313643235,9288.026575325395,956.9550637605903,1316.6865135885557,0,Low Risk (No Failure)
130.47061604998785,10850.157993961839,8634.157215467045,0.22973465411852856,55686.333700693496,20034.179420325076,13820.524345805961,41715.90473001796,16165.632126504268,233.91314563341302,10.419269529218736,21.48533554509722,4242.810362139256,1957.162254743305,958.1594761218461,1,High Risk (Failure)
102.49600681419297,8686.371334869214,27614.104513056347,0.2970769577964727,27680.34734720514,10282.035962468748,8128.135536237896,26074.571414241433,34469.00849677957,198.46124748010556,10.708825540814043,23.89154737996465,9727.506298598964,790.5181469066868,1026.4154971449861,1,High Risk (Failure)
152.0949485824131,4072.7214289773833,11385.523128797413,0.8666569240289065,32959.58727168671,23004.67335797927,10435.605364165607,67101.90240833079,51160.56968988922,143.63404890466285,9.290783187121228,24.82987466191261,8242.422641935947,818.660384475703,810.3626585916055,0,Low Risk (No Failure)
100.16022132196804,15326.338447379863,31522.103282471937,0.35392767657530366,23765.72026369208,8769.287670277525,10898.249698071708,27103.866172206053,42099.58403721019,283.65012564452536,11.70193172352463,22.105555950989817,9276.984687451166,936.4918764680735,587.9830407764877,1,High Risk (Failure)
151.4016751899356,13125.816394015057,21720.351941494006,0.9229277651739684,15896.94752038738,18572.908748323494,10064.163387395844,20385.688237570474,24107.562556481134,210.75887965163997,9.397343750523534,21.71321677873614,3028.579466943606,1489.3214306378634,883.902257636682,0,Low Risk (No Failure)
117.63742700806846,10295.54883738837,7451.118788066862,0.42323944149018644,54371.03249646548,9682.843652266685,10356.363734891816,46512.48634090075,10459.45825924534,270.04975326198155,11.509420489417124,20.705940333895402,8707.569844225069,1403.2253338293583,1115.1442279314024,1,High Risk (Failure)
172.77936160694108,20960.496954390394,7797.803605424952,0.7238286818229451,55667.84892961369,24795.693023290754,13353.61868243789,34399.83575397961,19447.804642961506,131.08056996581777,8.037179592360218,24.303781794250877,9341.652555609819,1288.17389917015,1394.9540435899326,1,High Risk (Failure)
137.32708559461202,8153.964462575922,29751.16731870085,0.5347868754331151,47272.71264262205,12323.552835693208,9080.231846204875,49137.01910213109,29560.702699105674,294.20984047273765,11.397776853306722,22.001297425019796,9628.50286930495,1289.878034976025,1099.696166474606,0,Low Risk (No Failure)
101.2292621617942,8176.426455761244,16956.311430961476,0.0014257282875326238,23596.59649920346,15218.148206906619,13678.099013616684,31856.116893869334,67577.51596294856,195.48101229407672,11.582774453777134,23.155958038836676,7636.468282276251,1920.6656508129731,1090.308551814762,1,High Risk (Failure)
66.73491034181791,5896.9193916440245,16047.883696157396,0.9646855564468417,16895.748162884785,7508.817847659475,3224.0055037915618,44787.60764187434,40528.04519239041,133.7413956148995,10.18443885851562,22.891851740472006,5305.329377658934,1096.0678244589376,1365.8194057520886,1,High Risk (Failure)
117.67592082264862,13341.120453204809,7989.834581937459,0.002080639176285759,58313.79179639499,15687.241254616472,13255.319690867214,27471.247529113534,69209.29701996679,171.23410969373236,10.19070140804328,23.358100058057957,4192.897900236601,935.5938332633277,558.7122768022392,0,Low Risk (No Failure)
105.92610130798604,5123.259915233197,7579.212058376348,0.649580944617839,41376.76458733619,13758.535052911706,11243.788659366099,33767.37279969509,40598.88849183943,266.93054890005436,10.193022255384706,23.029836488794068,7023.685431671642,1457.2228184588253,874.295146694164,1,High Risk (Failure)
129.8582703630026,10174.886814242804,20642.661270449717,0.7922159038047747,19865.93875527188,15971.003317903835,6886.376895948654,12420.745523942067,54878.94258839099,100.89378718583002,10.452210771912423,24.181917095291915,7611.992406593399,1551.390532035648,727.5933559748797,1,High Risk (Failure)
95.33644527408143,12905.160746191408,29009.745782194677,0.5515306529322829,44324.34725178223,24863.355064153115,14980.534261582006,17876.572094426378,41403.718801672745,181.41374805771355,8.233004529659482,22.86765573059426,5493.299104540407,1355.985861852505,1195.36113028681,1,High Risk (Failure)
130.3769023542136,13794.83196417504,8423.442715603356,0.5910707096477058,49909.010577909205,14703.807202224316,6760.524927511931,25037.10150015353,53196.966207252684,186.06600050702855,8.853640798173465,20.684471558639963,4478.01579612771,1663.6319301414405,520.6602674465228,0,Low Risk (No Failure)
99.99566253901276,23641.249170831423,34835.15312661676,0.6848683400268474,50256.60668289649,15579.371285826406,1095.1479864511998,56075.73403789772,51600.91295497749,237.71038961302412,9.920651163639983,24.451248953315467,8774.919860915215,613.2046240861421,1142.9206725126833,0,Low Risk (No Failure)
101.06355314977533,8474.90125321518,21514.774083977532,0.46625674111737336,40158.047742415685,25971.659144109904,12788.948709825132,46725.93914092682,12096.938823428214,115.20561547388067,9.774367081674104,21.253555074647632,3650.7943586879383,851.3417675470873,1361.275490100843,0,Low Risk (No Failure)
184.90107478808915,15782.954940125272,21741.469268884626,0.6564703938869427,20915.070749169558,27782.78955439065,8204.284631260327,43842.77595511707,11795.767903913513,122.42594353635482,8.36506707769909,19.155906828171663,8065.543154644341,1379.4207265396199,1389.030089553553,1,High Risk (Failure)
85.86059425513821,19640.544990917908,14162.950780490968,0.43407639419691957,36938.22201756365,19487.686060859436,13659.083571778792,23822.532274105728,66666.97414574522,276.4410626716919,8.36052326657405,20.21427796205433,4115.5443044979875,1372.6002547206367,1150.4720837608738,1,High Risk (Failure)
69.20940160266309,13896.670528891736,28428.344568514614,0.9350441963907306,56698.888539005035,28350.372289539922,12511.862481328053,64575.65303058031,16664.491878670255,235.6401049670516,11.076576233379281,22.676218731954158,3154.8934527188935,835.7396903948588,1255.2928303212916,1,High Risk (Failure)
213.82665914272792,2993.777610571642,27951.29569911469,0.5372522720033387,45910.9490407446,17676.994976817838,6074.943702138441,57456.65423013011,38561.675671844205,160.19663223621933,10.128339117869878,19.14783239458319,3973.7841205507766,1586.8479775977864,1225.8755095180977,0,Low Risk (No Failure)
159.82333380666216,7484.473901386462,11265.110613559515,0.052586860214377085,59520.97568073836,16649.345658681334,8970.01069334588,15265.343550217713,11446.150405129658,197.4659511498458,8.738733407859886,22.58893288377523,3392.356754490478,506.6114745023008,1312.1821253323726,1,High Risk (Failure)
161.75045229227374,8841.113824009033,15832.83329022007,0.61705424610421,16886.68594700926,7165.505725239089,13322.522594205644,46846.26248921794,65823.5841790725,288.8265083444551,9.299443245041463,22.36918524807843,9823.802117169878,1050.8886942223303,624.7407156680649,0,Low Risk (No Failure)
82.36358026020632,6718.306477073922,16174.06816736325,0.47932527777151546,48849.12221776837,11804.978481914137,10268.842945838269,20392.776982956886,59269.14020548656,161.8407638748968,8.962111199097139,21.091574042395575,8443.308516049437,1046.0258667810867,677.1157754266419,1,High Risk (Failure)
148.61668550421132,21107.94861704672,6500.564627065591,0.546501713897883,42285.53874680753,26487.332247224454,8022.329999411656,65762.08540013988,65489.01367706955,206.6379165754783,10.648329898494303,24.931244935369097,3585.413577097036,1096.5881982488413,683.8263937728549,1,High Risk (Failure)
68.75723310799773,14407.526426319197,7870.5862191771885,0.27795815713098493,28115.324144043334,8233.980706791244,3309.752891016432,52122.59512854622,31025.945547457242,120.78875513477615,9.271738380617112,19.639536083401936,4776.676293184623,1048.088856479597,1102.5712332676776,0,Low Risk (No Failure)
158.14643134972638,4865.2434843830215,8647.620486005806,0.29201410044073406,23052.76981337298,15856.704026591777,4861.901752089087,12817.558199350671,57032.12164683108,257.8136928059057,10.432733311230624,20.13246965584148,9924.916141631718,1350.5663086642385,915.171913485425,1,High Risk (Failure)
98.00693198782042,25075.8836460271,32651.82261593198,0.05671513828222552,28250.56017393527,25627.909272752207,4684.923899066095,20729.750331565527,12444.630270351892,200.5397656019415,10.677702579218863,23.68652127001025,8659.003658262702,1434.0844165946596,806.5525636429654,1,High Risk (Failure)
168.83651878900662,6508.107566169581,10346.992967347504,0.34992853377140765,16004.529280397293,10885.999493152005,7587.7929742579545,32623.029583054926,18775.033697838648,276.53656346847174,11.98265321120953,19.25840378548946,5039.294623335086,656.3596073983233,570.918728679863,1,High Risk (Failure)
193.01976230171357,26020.352546317543,8135.226879281723,0.7802065722011909,51951.395710440585,8461.614901741897,10768.87934373384,45610.428415522,20191.245199085453,269.82685941478815,11.679680873384163,21.71626802966712,9823.325414701103,824.6620285909023,1135.5150846281576,1,High Risk (Failure)
109.79479921014297,12731.066209288816,13063.912885009326,0.7634178142206718,25570.057468731902,9405.82095377292,2582.105673263799,47675.99278103706,21358.212189486927,138.32777246303627,9.505506478890354,18.781602787202925,6272.8811719851365,1804.5897589295637,813.1746349069196,1,High Risk (Failure)
181.28646736179462,2488.6967683866496,30570.663811624552,0.45482977243864975,34845.252041902364,20544.540715106406,12950.437211441114,59922.82825403669,58578.412979376066,208.49746535004132,9.449501009538654,18.5022081081201,6405.529910063711,1400.4083851982125,1215.8830112355383,0,Low Risk (No Failure)
204.69756399901715,18381.543000409703,13167.42609111414,0.5034041088444616,37890.358444047226,14195.4062770259,2436.014142075054,65258.34815266915,29616.756543569696,215.80307027332145,11.655786819438772,22.36168095336309,3095.9679552320013,1247.305695312205,835.5587806675469,0,Low Risk (No Failure)
133.71737603866782,6724.708278185733,26712.391562233566,0.6487986245788886,18465.221994098756,11608.591565954368,6491.085837341034,36904.037524884465,20390.016829200256,279.80849370023935,10.349686216543052,22.020663324074533,8010.590104300717,1247.9662212532312,761.2828857752453,0,Low Risk (No Failure)
69.831406420926,9123.889444486013,6823.435058882103,0.751705960179315,41676.54294081749,12457.316960769418,4286.510640274109,33575.0836791646,43105.73780061,190.77790009693638,10.50843398363831,21.284011514353278,6040.154856622664,1053.3047114205417,922.4131366056479,0,Low Risk (No Failure)
93.26180082336437,19314.78698160865,20431.497395330603,0.32505152360958756,52371.4662908981,13063.23636193898,12673.51959263047,40851.92155571636,20000.179585386886,164.98549986011545,11.32691684520256,21.865583629175486,6766.4324904447785,1807.2846093765618,870.6845791551316,1,High Risk (Failure)
185.34195519933414,23402.437536793102,12606.493277957275,0.05850715144943641,37146.029657880295,10109.958591551993,5759.620642476183,32757.011826898684,51666.106431452994,182.0164317545334,10.255384469300218,24.989154559852505,6986.10881928474,1627.1078321783134,596.6569964908447,0,Low Risk (No Failure)
138.82001668653746,7306.135034299842,18774.77391127734,0.47706674956727246,43026.85152861888,5887.085128642437,5143.2125652329105,19316.00860667207,33100.178086306245,274.73047085985513,8.21179519137733,22.52581773333905,4318.275637954352,891.0453628058435,710.7040417537252,1,High Risk (Failure)
214.4189914297673,5550.176100237483,15951.370804283404,0.6832766104223897,50034.995696019236,16306.525251881014,4105.474018667918,10839.181712388983,50438.90298549266,203.72888379359017,10.267102298824607,18.01727035676929,5752.02974742677,1262.9069059802043,512.1783450245728,1,High Risk (Failure)
211.11177323108853,24960.303897481383,6200.58922217018,0.45302401360120637,47116.86460234459,11085.773125245069,11672.338983132451,47448.85737218994,40837.91911417525,244.7289227691616,9.452651921173203,23.62845012199329,6014.267241017379,1776.992179990012,1470.9762822654434,0,Low Risk (No Failure)
127.60774852991113,16033.58917235889,8913.604615320824,0.41851638665268387,20668.504933710887,22627.8065333836,13443.11940474507,62797.36251589364,34723.655299697326,102.85623291946575,10.870829304153371,23.669591955923295,4839.090583783794,609.0739872316665,954.9199152867131,1,High Risk (Failure)
205.69691475430747,26532.23518333454,7116.028857119658,0.9611244018517173,38763.21352815622,20554.964641876737,14222.888645470699,27617.983775617195,30120.38915876063,297.96130316303686,10.527844151727837,24.111334289238656,5839.843333981909,727.0269961704013,1351.7992164518348,0,Low Risk (No Failure)
159.13429399357452,7098.009159153979,7953.126470029723,0.7343234082185247,35731.748711461725,11790.426317874177,3277.8378284437285,25471.1333426727,62124.988992430524,196.79228851682498,10.998423527120211,19.600058470310497,3140.1558660479545,1866.2006989439428,1230.800613045803,1,High Risk (Failure)
188.90722447200852,10123.041369007928,22433.187340936893,0.19924187858461817,47997.40631252896,23065.521874713504,9617.974149847254,33656.96284069397,61891.209648566255,201.01422534497118,10.878514378415744,20.802837151659183,4714.860806678149,658.173302127326,1127.1516755898328,1,High Risk (Failure)
61.8592863852961,25433.608652560473,26802.045090600277,0.18710842291725305,32742.196565292626,18726.19243794318,8729.91502984431,57721.94350970638,30622.43302630981,174.01844224853357,8.460606701178804,19.98676544396394,3615.4269215154022,1622.8715754400491,1206.237758485625,1,High Risk (Failure)
123.84565082278955,17990.028465309726,10095.182999037439,0.1278058427952129,35902.1701332742,26484.039892276898,1816.419300795019,42501.81637528332,35524.71943550911,178.74423731359212,9.758823914759954,24.748197127058894,3351.821142738776,1182.6960345855218,864.2320100744723,0,Low Risk (No Failure)
137.04357624200802,6045.344586132303,26536.03553393791,0.41176455022637737,15270.991816578287,21837.49652046173,3355.2496519007236,59597.12023062659,66660.57266699447,262.8271758024529,11.955387180676738,19.677466825436703,3750.483899962621,661.2850686821223,1136.5154281042583,1,High Risk (Failure)
77.79159716898421,21416.91212515805,29432.575916440248,0.19416207741450964,43126.03495191714,11331.772391686754,7152.520350395293,28359.275784390047,51100.14473801643,185.17923243427435,11.54431966316645,22.957496353799346,5974.236112024448,1286.742902050749,796.6955555864517,1,High Risk (Failure)
84.02704013072666,24950.758566377623,29546.360041113894,0.5836122161410496,45114.18022300945,22575.162070882798,11052.967437759471,20448.671697486796,22848.439654956925,171.5168279182397,10.101614100487314,24.804384110574546,5038.03889787818,1006.2970779863822,976.5421274622126,1,High Risk (Failure)
128.17334142245943,10993.301276082182,19256.82401005221,0.6383543048854777,58631.56514045703,25213.495417424332,14320.840295687834,41282.4745241448,28678.99925655112,108.89410179437888,8.012205063044306,19.652434423965822,3953.1192126677674,1144.0651700801186,1451.6702970454464,1,High Risk (Failure)
211.99378943203607,11340.208714129772,29574.935002886894,0.06981630148556195,34653.15050075884,28365.66831318946,7733.755834166926,24859.53406174606,64077.47425563047,100.7016699106872,10.714983479060166,23.386878143554178,4685.790314830086,1393.032345401826,1212.6553533602723,1,High Risk (Failure)
69.06886914653367,17806.554705349452,34448.31966927298,0.1428879341922672,18479.34567860134,5698.064930966,3611.474905706217,38945.581861384766,56648.356195122506,275.85338384113624,9.379556825115742,21.384936702881795,5661.709000946088,859.9638509005293,867.615977982919,0,Low Risk (No Failure)
163.1732166435702,23323.39691418198,7154.226363364076,0.01872471379439067,58654.57939492026,22069.060299399276,2415.6012666053175,54890.42757868532,35023.550414283614,138.59092012963768,8.065470334009477,19.218078299331324,3454.4730232245483,1637.3550081327194,1155.2567326502058,1,High Risk (Failure)
164.69472087883514,17549.81207708738,33791.805141168836,0.8310067889897745,58134.8933390682,8750.556246360484,14905.542996587115,19486.454694333806,60773.39177356892,242.1170665302467,10.640682593092194,22.246101925167252,3283.144299411388,1813.851387341836,520.13422095751,0,Low Risk (No Failure)
118.78251659153128,7758.5424515609,19678.166776928247,0.7742221911560132,35797.18711310842,10906.510171865923,14813.252668755063,64967.17500602398,36339.04983381071,259.40559711247863,8.830484392840454,21.290870482854494,4270.972614501653,1100.4772546721556,1410.3587443518547,0,Low Risk (No Failure)
160.14262022992145,5664.948511067839,26371.82085418765,0.8631873483680562,59995.543965415425,22057.06011505276,10242.465368821515,16140.521930319866,36691.00366408986,141.614339638263,9.138889714868585,23.407820228025876,5710.390015888457,1961.291729938228,682.3944466079886,1,High Risk (Failure)
108.63080196080438,15274.269315336538,31703.16420328112,0.4629373335771835,18326.477249059364,29699.852785158168,10349.192592455107,22468.763212120466,63390.02032863381,167.6913016621059,10.889841725311072,20.298585235779846,6237.85263784921,1741.9747151340346,1389.0775995993768,1,High Risk (Failure)
69.29337794691192,23527.15467905029,5963.287414461747,0.2578642536448449,58254.355555028684,10530.466401936405,12557.902850835342,60261.78949411112,25327.601737809666,206.78468939821465,8.429061160695756,21.349646635688117,6972.906237940473,958.9729871133554,1478.9019954063024,1,High Risk (Failure)
151.03287732509614,20636.697168643157,30166.43241515363,0.8121045388640898,54203.83967482833,27127.757227702867,13113.068429308869,19069.427854826015,26313.587493279738,219.24390319967688,11.832381134347656,19.057968275976794,8734.779037743272,1332.085517800203,1031.7846363302735,0,Low Risk (No Failure)
100.99064231029679,19004.146350451592,34551.015350178786,0.36826023823008047,31041.51743165246,14238.810516820526,4958.930036286394,32989.34852575681,14654.320626502575,195.05429603168028,8.282829702477777,18.77785258202453,4147.188505090935,1691.7663421655802,1074.7716552146235,0,Low Risk (No Failure)
113.50418863819979,5795.742339882392,32470.740501549128,0.22745811047292064,34281.28941704619,11262.658882795826,11510.909390223183,64804.950038775845,35423.502407107335,284.42552373579394,9.855262415876664,22.99338978982333,7727.989745116563,1550.8629764015452,1334.073099043272,0,Low Risk (No Failure)
91.83874223350989,11250.846778722986,14148.039130929825,0.5077772860695646,25048.389709593008,29973.34342761348,2901.3094106865983,52131.53469784249,33189.23326308372,133.83236905194832,9.789581374912313,21.72436995829333,7157.09891555411,1470.9364676304263,1402.6287143815211,0,Low Risk (No Failure)
207.1768986260417,11475.265710298541,20186.931082726405,0.2733123586537196,28617.25294089167,18539.769456831862,6412.804147091378,65803.37167531051,13773.912946045652,212.64279132742848,11.583380895398909,18.28175196761831,4347.740398652286,669.0455782276093,755.5311724645273,1,High Risk (Failure)
216.51530696424933,2292.531180666294,17004.486617175353,0.4307419748812953,51151.99071470645,13229.442230028033,13322.245017538926,59388.0344489311,39801.26626060722,268.04674955424724,10.54617291639406,22.330302067792175,4275.162589627065,762.2989871424543,822.5540570089313,0,Low Risk (No Failure)
82.4519229109624,26062.687465585157,14785.551838337278,0.10424319888477751,43394.6019396139,13550.845996761442,8602.059559193785,31377.51323169695,63451.30878882548,147.50371014972575,8.133259889076367,22.762965889300517,9667.827327578678,728.3436639318174,1350.442220979914,0,Low Risk (No Failure)
152.30462154021745,21331.83003356383,30815.344597623352,0.9173619850652766,52224.216003903086,8056.325907255722,12550.000406217921,29152.927724705867,10201.986044296198,177.1780577704841,8.913920059095977,24.34706139834796,8194.94964303853,808.284154786417,1156.0910319600198,1,High Risk (Failure)
95.05100945629724,5597.086786794874,19732.038489607352,0.8750589641689428,48793.79668501976,22644.169232690983,8783.982147676992,49848.286420514,46861.95039070465,278.02840897512385,8.57793960765344,23.327531959016746,6037.7956245277655,1399.39641973894,1043.5026380764975,1,High Risk (Failure)
166.10339983603342,21753.43096617511,21227.59439861896,0.33671659728009506,53296.910186365596,15046.49764222691,11275.829677321399,64877.115362227596,50980.489051707904,144.48442656653566,9.018981047954748,23.142158997262555,7815.914624664391,1969.527291418687,819.0485536474555,0,Low Risk (No Failure)
204.18528167855823,29633.685697053803,30462.58101695705,0.8150739906826099,29310.288872748017,28368.55907442456,8845.915260622158,62238.52224489787,57856.23576600314,245.27317223984858,8.15976387755021,18.334453953365657,4922.335139980241,1185.8227123412526,1372.8684862716404,1,High Risk (Failure)
124.13622668218238,24770.633080633314,5264.444998834179,0.3344461868783247,50136.6583988383,14805.505715050696,14742.438384003088,45634.06921966647,11707.793301013951,176.67892887297444,9.568871594698459,18.55460259515666,4161.853933235855,1660.6527253267518,776.7120135506966,1,High Risk (Failure)
66.30828981896094,15554.216399710607,12610.083773650895,0.98992149127494,18236.991816661463,18865.53522821529,4290.832020586912,56499.29732186516,69767.50117388983,115.91409705151676,11.460426791751717,18.77832654698193,7655.577356363542,1014.1300260326989,820.7022483221407,1,High Risk (Failure)
206.12591161219788,2223.813588857655,30647.769695332136,0.7206763590925183,56285.93514996617,18549.119685652528,11732.700695549362,38947.866949837575,35770.41534612968,146.04717066197492,8.85597445665221,19.705872250507348,8696.356326497551,1260.8062191659624,1398.0314694776976,1,High Risk (Failure)
79.42159030758862,3190.2854947507194,30939.77341669675,0.37421279573905797,29918.746096417362,28664.889787455562,12505.326740421508,30173.808149235916,61977.69760130551,177.57162800407104,10.225987673293595,24.49162872123701,6764.53848790474,630.4730448568998,917.9342612335004,1,High Risk (Failure)
210.52552328049725,24856.789888622792,7518.549844993515,0.5335076625164867,50057.01915888445,12421.465624150178,13067.00917962143,16782.582021166432,65293.75518723252,294.0279286389991,8.142245265065522,24.87336628582235,4347.298825568041,1759.5767496222095,654.4527343545851,1,High Risk (Failure)
119.9380183402354,14048.366553796928,20629.741659480715,0.22768662592959843,57604.52784736001,10728.85467563572,8419.85212927012,11078.639870571576,24979.688448960456,152.79834943973145,8.975831750191695,23.796912732738917,6756.1663098394165,1805.9753208889656,986.2649294290312,1,High Risk (Failure)
111.8934004984601,2053.881701171031,34094.623557231214,0.04761237842748811,53766.51650855728,19132.84965724716,7146.344409630205,28910.947350652114,17208.593611087745,240.87125881781918,9.082920068100838,22.519322846741264,5059.350991926936,1665.427570752564,1345.3429957141313,1,High Risk (Failure)
154.58084852136264,19769.44621853781,21395.411261036104,0.49115317431045047,47615.21955484744,9177.944914785017,2779.1425718260593,38872.09448940141,52777.84381460599,246.2433304449638,8.372842759450544,20.531196145791007,3208.1711636613045,644.8418155059809,1120.7380396813578,1,High Risk (Failure)
198.13338393149203,23633.663013024492,34980.05368493346,0.8864360553553905,55720.34751629069,28543.709055780117,4544.087163153652,69081.93710050666,18751.80910472569,258.4008615348871,9.021418819239797,20.261329324273262,6243.972335736191,1667.3580931939312,1381.461708369763,1,High Risk (Failure)
80.0778074878641,24436.554421702167,30485.52998578034,0.7216585494841574,59698.82374385091,14891.86524896829,2734.020490528829,69839.29286337539,69207.10472899316,113.25623477136581,10.741369350816306,23.901689447271814,3110.5961444279237,944.8640990645736,547.934346256127,0,Low Risk (No Failure)
174.35501336032576,26002.43579050053,5946.0388439367225,0.8427654361503011,42391.05581401596,22478.235399085883,13559.215984268167,19689.346317386367,31124.20662790352,117.75901769744436,9.797062936244817,23.85691517728514,4520.1459859997285,1626.9562630066393,806.6853807381784,0,Low Risk (No Failure)
210.31983065027026,6387.531686262527,32113.017841973196,0.08398950138915895,40761.2952572419,16799.430073441352,9061.587053996325,37958.491496704664,68195.88666253965,142.58016820287628,9.032174006753753,19.708381921046627,5882.98153691798,1214.1749790420909,529.003902960277,1,High Risk (Failure)
162.86110560939323,23342.696280977772,23165.878246738164,0.31257472707785827,17137.2401107045,12109.85829782095,8229.671930229408,46456.074198025366,62989.14320677286,164.14516766547365,11.07690857311982,23.5677077689486,5217.071470680139,1641.5313285479497,816.402420502774,1,High Risk (Failure)
190.85347458800345,18182.310896115745,23102.5273541685,0.37242369617500704,35209.96983893636,29277.59359972898,9762.263617612038,65831.56004249999,22009.24501412936,188.5026707229115,10.222643702748062,24.627202432216205,4451.262062471678,1699.458166360282,1113.3305817702374,1,High Risk (Failure)
202.53688559730347,16988.20432922161,12022.286119523456,0.4862855723513465,57091.62747321281,20113.365652112414,11170.46199965068,19585.296533079083,61038.55288884097,165.60639677686072,11.516092207757415,18.47262261921215,4686.840981097997,1167.7833432740863,786.7936461682193,0,Low Risk (No Failure)
109.25106400417906,29859.622895803517,5506.800652145554,0.5185181326097129,35731.455590242615,24021.85130193186,11094.449185120482,29224.529503134785,44329.161475814486,199.03726095161687,11.170856187392202,24.115102424870184,5610.007725901927,1945.7043355459514,1189.7099565721312,0,Low Risk (No Failure)
185.18167744932376,23224.187136164317,30727.630272872047,0.23756584338348485,34222.02185173534,15137.837430607042,5455.836356108892,59113.923975887075,45564.26837026337,154.04466880937713,9.411862574475922,20.953245874048275,8845.009569094536,1477.3445631533161,718.2607607252215,1,High Risk (Failure)
80.91477177436117,12790.466429259239,10423.097579027093,0.9035312259127926,17021.402485896102,12636.281833864825,4834.336429696036,52906.190713425516,27545.982457801085,240.689226005595,8.598818691286157,20.883765561192483,3221.203271379502,1418.6138313157758,809.7056811138926,0,Low Risk (No Failure)
122.19621566024747,24793.377414591137,19181.206959088675,0.784094700579848,18907.638919800516,14173.92781881137,3803.6323323442475,45706.99389680069,34794.43453167357,195.19907384460214,10.247551355996862,21.084652254309848,4138.4176711439,661.5752551829047,1133.7960452278026,0,Low Risk (No Failure)
187.6501838173815,16317.153921267496,14434.299075995315,0.42437676701387816,15944.324179032812,17411.521961260314,7157.826425570875,69558.04179926809,51671.60393563938,290.45478320627564,10.832618066970612,21.12409774223768,8042.559172257431,929.5650214118953,702.34799300314,1,High Risk (Failure)
157.72481137212293,21948.83172135116,17823.515997274564,0.44678116303137805,20159.844276388216,18847.334710400322,11270.165654317216,32627.61657111116,11689.265545751536,167.85125551210308,8.349730089656841,20.37745076390641,6312.195594892044,1038.7792110631622,678.1365978210172,1,High Risk (Failure)
189.89857984166076,4113.472435069365,15609.135894203311,0.1956089962521924,50792.242835517805,13795.180517753446,14853.956361616629,37022.274936801565,63046.28852798147,121.50155648743831,10.71510760565967,20.78539205630593,7258.893702602927,608.594437189115,1139.2557420746284,0,Low Risk (No Failure)
98.44785975205868,25764.505427421765,14321.105706747228,0.02158991114267539,55281.21116826823,7253.371618853182,4536.956396457344,25004.062772687746,28616.84976724537,249.21555208581336,9.154552738782783,20.462715721051318,4363.390328776698,1136.826163291093,1174.3941262397848,0,Low Risk (No Failure)
198.29731997434192,19682.177463698918,20873.098029813154,0.10880739023006558,46039.89551982313,5273.684345784222,5206.2118958186265,32930.392716295224,22382.947877298528,183.12688539047375,8.725071450209757,22.442600480528903,8269.425515149524,1372.7771024929705,816.0528341559218,1,High Risk (Failure)
202.82747377231598,19065.66728131807,17353.460824573238,0.13062396686929179,57100.45020909988,8282.810904463757,11963.299840652471,10760.702623345767,20832.15475429233,270.97568319501556,11.751109042897259,21.36123173390121,4665.911411205441,1837.264187431719,1069.8002152718848,1,High Risk (Failure)
86.88227323917815,1170.0771087276778,18309.36939810436,0.18277390266349636,15864.473988308167,27270.28534498115,8084.34502230527,25293.77623379867,49522.16237257758,136.47329040266783,11.499522361208443,18.868272980197805,4210.980184170594,1981.996994356712,1330.5112309634005,1,High Risk (Failure)
66.44128048147714,22352.117064719223,32921.33666997631,0.2118865394499575,16854.391308369584,29487.045714161566,1595.7388445010047,18842.691506823612,32960.57003140837,205.9564758667385,8.766380559195516,23.665502744743403,6526.611010805062,1305.0117806422033,1130.1359279378348,0,Low Risk (No Failure)
89.25014216627615,15311.7662971574,23931.97334503089,0.38193245586918645,38183.41314926772,20302.18922558688,10518.355492078623,66443.42259329371,46101.5806229631,120.33772031030747,10.776145897945325,18.769504115831158,9212.762625956064,1511.7962766003993,783.8012948767852,0,Low Risk (No Failure)
76.90634948187903,24720.941336125456,24081.210653956576,0.07625156434625346,48851.60669132217,15460.494594183192,14835.009340820938,15422.351323002586,60568.891215070704,254.3091683254601,9.95162072229108,21.917438633724398,7035.396173371371,1695.7800937158752,648.7777959951552,1,High Risk (Failure)
89.83012194308073,25723.73670138951,29788.07449587743,0.39064065480433907,17588.705267159436,28574.137392126144,6273.283946035921,37570.29654045148,38657.857125642506,287.16529337958855,8.711277414941245,19.0780700631557,8466.401015759351,1177.9515945597468,1113.8304631448766,1,High Risk (Failure)
143.4313102469743,2364.7747384314744,8402.822802375245,0.6060893405565367,18826.460407587176,20121.962018761005,10357.899185679391,28277.909337774032,36713.41559095301,273.98160909229443,8.017791912395317,20.38738350329644,6841.569416539077,635.6042563689535,846.307714644063,1,High Risk (Failure)
82.39798027548206,26266.883677553396,8429.693423573757,0.024414314822222116,32779.533885665514,27112.52408162897,9409.212629949068,25839.92331123333,21106.196365330365,236.85964452729772,11.188894639287868,19.671938641532062,6233.090465187997,620.8055336530279,1277.4838280386318,0,Low Risk (No Failure)
135.53071121759987,1249.951075161628,9032.93248507202,0.4584676101457238,35975.37386704916,14859.677493541016,3915.7167106835723,32556.743610069814,30713.2036332506,192.5201921086234,11.572198500951854,19.71559939582184,4347.444595254705,501.437839664842,843.9959102135133,1,High Risk (Failure)
72.31671473039461,7800.036196711928,5974.439661076842,0.42553164480088324,40522.78950833407,25621.369360343477,3019.299752565149,11237.264591614248,62193.28829704226,239.30912441323574,10.914442090848878,18.377483512010862,8414.222568730927,1249.3801172477824,985.3286297328442,0,Low Risk (No Failure)
74.1924054011289,20009.789183537265,32337.68455502864,0.8011555973011573,46020.338910429564,11504.579277050863,6132.642243518801,67037.59284476204,31349.293861066835,152.79342735681712,8.077315532434211,24.08076093192664,7079.47108602601,1366.125861239576,1018.0038430270292,1,High Risk (Failure)
72.99674156906762,11553.082788364642,31645.33731135148,0.9269406627820395,21529.89677063842,16719.0198118806,4964.116381068447,29388.842786220608,15109.156861534917,194.65474883575186,11.044842744022006,20.250145196469543,4627.991715552529,1152.6388668863815,543.1935470047599,0,Low Risk (No Failure)
116.8615309897183,10281.727361323892,25754.557583751524,0.9353822607327862,19579.46084481145,13756.422370086317,4126.5253437624015,45599.662165886206,14563.619857278409,271.3486163111974,11.224075111137529,18.343837529813207,9378.500198015587,1487.0782075633492,747.4261968264203,1,High Risk (Failure)
102.96540097081717,28847.72439626993,34965.344815538934,0.8232099421806358,41350.073429394084,11174.724882141989,5420.602349435349,35005.634656062044,43504.635536542686,126.56424918663345,10.569257988800594,24.47811539128459,6280.666049610811,1974.3302014054193,1041.0717822129786,0,Low Risk (No Failure)
123.50772419225537,5140.783463368656,22630.07154419781,0.3203619704923062,58054.56977466826,24354.966488229664,8595.43523720662,20494.673434998236,53781.930058654594,122.16737313848371,8.990274799726585,23.774809956029124,4494.109734206146,1305.7861622107653,1287.1450925587021,1,High Risk (Failure)
176.23387441808077,5332.582265159397,21811.39580410305,0.2539663983122221,53838.32993657581,18352.25151809411,6204.121970684615,56997.26859270168,18639.40095486203,254.23287363639844,8.804981248389968,21.231974534669,3024.4124755892994,1739.5968467103082,1156.0805738320898,1,High Risk (Failure)
116.52022536033027,7362.292286691142,16203.92650378166,0.8281085092683075,35940.26520294229,29861.599247400034,6702.998342126683,39171.482126315044,38333.95256599061,284.9458997807011,9.21159673103867,18.33188382565925,8998.735101477138,1825.6636926337076,942.5124929882938,1,High Risk (Failure)
161.90437079275893,8247.149927469805,11912.659154430115,0.9804488986363927,43097.67439331291,15104.095538324831,4048.342075581759,46934.212046670946,23627.07270632886,286.6838820278559,11.669900628950007,19.5790532336092,7118.403179857726,920.2781241982896,1248.5742842726222,1,High Risk (Failure)
214.66477104698714,26066.621727223224,28619.775123721858,0.26083108002500877,25508.033636696906,18516.08119880876,5046.112620773321,60115.335652524416,48647.43520864613,118.42468296575359,10.555058282673633,18.58340490681545,3676.402869928528,1045.5145479396956,1000.1481022022288,1,High Risk (Failure)
182.75012622898032,14685.172806371169,22981.376667833054,0.35400494318124265,58204.81676258529,6763.948881635604,5232.2775093265345,53659.49364233767,61391.413724780876,296.50090470468956,11.374562465117114,21.42310708045792,3017.904966573587,770.8229315225162,854.8195917010419,1,High Risk (Failure)
121.69561480213333,27775.685739827954,32835.26799818584,0.3952884610696098,25796.306348453618,17468.53198908262,5728.132261797275,14563.502589965083,35832.016374037616,216.89067642134134,8.048185539734387,19.00023947240277,8152.623006475484,1934.8577599394778,1124.6279640439407,0,Low Risk (No Failure)
87.71229918560243,3648.446295673155,9261.848283291867,0.27266799026814403,34862.959098616,14502.323643645463,8822.42996032932,11605.534389563743,65641.99504222636,217.8407479782869,8.70603911166048,23.422545605391647,8792.332583002448,735.3821886747689,910.6412121127878,1,High Risk (Failure)
194.83390434568878,29165.377444679336,9670.283766259261,0.9506819368070825,44990.531230867506,5896.992044721226,4368.231518995541,43798.77427206019,29693.362269406043,203.65965673724878,10.356330841258387,24.436555035354402,9679.642236456553,653.9704766187817,572.9274754728931,1,High Risk (Failure)
96.73570572063498,12004.38003721048,5966.460813511187,0.6885995206754952,37486.18133569381,5941.126027919076,12108.784614818558,31838.928393863953,32597.533842908095,244.4335367345451,10.912860237642525,20.467410860321785,9133.296278233554,609.288383855366,831.6235880136287,0,Low Risk (No Failure)
168.65637106311834,22321.627024946287,30430.4359388665,0.8206255930671946,28441.540560497422,9088.023779936473,7028.989150433545,46986.190059973866,65735.09563335462,104.49858367616787,10.593963704899497,21.007003050517852,5355.472697569927,574.0589253213288,764.6143662623349,1,High Risk (Failure)
135.19812290526986,8599.015130699361,16199.462190978229,0.7248705057140666,48797.42060460902,13273.822628769447,13936.90547846293,37891.767899389415,63120.10062694286,180.03382469211243,9.209894582466342,18.195239008288844,8032.199927202719,1486.9517276183046,680.6564341914853,1,High Risk (Failure)
169.2810837466171,23671.61495193306,18943.526178125023,0.48752757040499983,34742.01969977102,19762.283641370115,8363.116250196603,33192.35752830086,22197.613854499694,117.04606219746962,8.897137378440972,22.173474898993245,7973.207324898975,1755.0024795439506,750.3155801522714,1,High Risk (Failure)
98.79528058155674,25370.097150066737,27652.819018944396,0.09607597563835613,30801.201611804536,27592.81079075979,3113.367023763049,10331.288704119448,25117.728617873756,145.4796729659858,10.879946323737927,19.35296268035051,9954.310471184126,929.6586970939517,711.0766006160164,1,High Risk (Failure)
200.63662404516276,10299.219887356536,28924.669331390516,0.5656334514375047,19830.53810255594,9001.904062334012,1153.9480498586988,60456.55912587138,26426.995682914392,245.713488846367,10.940520755956237,24.589438652013627,8009.9654442360215,1816.7861240080274,931.9997774966396,1,High Risk (Failure)
70.76094623477886,15472.049014218357,34642.038258834495,0.7979467708924225,35361.15226864541,15957.597010052266,6279.285729551157,11755.927668144828,37993.23058392886,181.91380027474372,11.858251372215987,24.605368445329745,4043.6837636635832,1377.2256213295536,1494.699133613566,0,Low Risk (No Failure)
155.434732066167,27413.139420417167,8722.906283290471,0.653917788273347,24787.193226905147,11397.752410548093,4127.455356709999,21160.37397601072,37707.51923934158,240.9680743689367,9.115666636298474,18.757323537295555,5769.699902815755,821.1665651480232,526.017979620863,0,Low Risk (No Failure)
134.01967307829062,19711.891692046618,10096.6002441986,0.7317720250869874,43464.01959619978,28303.420432688214,1751.1463223575902,34135.05329901237,51729.805054038225,205.17143584639072,10.320069007360463,19.107837322300746,4031.02556736534,1510.4532000962963,956.4461814201682,1,High Risk (Failure)
203.25537426450708,9807.991697322948,33329.96707244875,0.721465600358349,24979.89794014008,27882.92981598256,4615.606413339992,67478.88590870576,26635.31760946416,123.67031518871332,9.862329942200269,24.757203027771595,8267.150061249116,1659.4993718818491,1070.8061975800097,0,Low Risk (No Failure)
197.2099740258054,6068.814736309581,22224.859988287488,0.7551177893054172,34801.8660444391,21412.457814472185,1414.873469313706,28206.330839816288,47818.82093884824,233.20553656927464,8.255154867690555,23.54742240515219,8736.598456101981,1830.4350587833594,1126.6153268814937,1,High Risk (Failure)
211.04673501206366,13744.495856394822,11592.509005006385,0.7000340409648554,50800.887325168434,13351.961041727931,1923.9440420259239,50092.04183560512,52414.04738847288,156.5870383888707,8.35788810819795,22.45875472998935,8609.393031248872,728.1586759550712,1033.2303119270723,1,High Risk (Failure)
113.69767268317483,4740.388329887793,29715.215455135814,0.4338080365183268,41537.79714596461,5402.932612194107,11721.328260859395,63252.53643048969,60965.22062995779,108.9416749154881,10.946133068886734,23.78962684142009,9946.30258602394,1954.5389805871714,1406.6265657553722,1,High Risk (Failure)
86.02573041687762,13121.116764009284,31796.197656525255,0.4164904123690699,18130.253256888664,11673.800188429816,4712.992855420589,16225.261343780676,31471.39263832638,143.96063379805685,8.09602624883134,20.60671791679594,5312.6066922285045,1723.1860195978854,1249.258845816954,0,Low Risk (No Failure)
150.83637086896874,12683.81090045141,32611.694945001105,0.36587170314897566,30300.41701085574,13249.390710692294,6253.337335777006,19281.107584398,45064.58062399846,110.5165123643751,8.549289036393574,22.528729239625413,4593.358547023128,574.3716273840828,1169.4883452764452,0,Low Risk (No Failure)
125.96475645306649,15283.133766594743,27760.21654060343,0.99465422295811,32398.448649616756,6963.192289794582,14978.94854723433,21443.05251278961,68443.86346275966,281.8885060865026,10.435770586543509,23.36738105309048,5666.189382178947,1390.2703591478894,1356.0844984455584,0,Low Risk (No Failure)
158.74319785664483,13777.490307716067,14684.434931415299,0.04550423779029611,53158.31660801399,20946.104497193173,3364.3492117242663,40643.09667477189,16212.40971536425,245.58321299986557,11.088176943894284,20.46672395361086,6381.857436664226,1219.840070102735,710.9619006566243,1,High Risk (Failure)
72.68484554099068,16916.41091221074,5379.278042000555,0.9965567392347492,22294.920994359065,20543.754923266955,5492.957024406856,27070.230850811713,42928.10359606489,239.53973906810708,10.230312241131852,19.109043936460107,9512.960376555622,1527.7554275366315,1404.3035038887706,0,Low Risk (No Failure)
112.0337914041938,29606.006536003777,11924.533555633448,0.2497690128593153,48535.25463739827,16974.17279197866,10455.011603716097,30140.658613531927,19353.10217596057,218.32476129205693,10.678614381003896,18.35092866702842,5027.748704426921,993.8767127814215,887.1781916695622,0,Low Risk (No Failure)
95.53213931093129,22099.80034191338,23336.4299359649,0.4306735714824551,48686.35770203112,26329.059801254953,3909.603260103677,47296.395855224924,54998.973791357,250.90830389383459,11.442593901873481,19.924803697808155,3735.8190728388104,1392.8272374091664,530.0141730457988,1,High Risk (Failure)
78.5822336320841,3917.9793394551125,18763.048698697785,0.1476434926371588,42422.80935445083,21528.378672958745,12308.759182520009,40017.83677877234,49620.35900509544,124.14445805262795,8.238547458815937,24.194100997354063,8839.056623989114,794.1969439379825,783.5863240773105,1,High Risk (Failure)
149.708527190232,11587.723686722371,27159.579517644263,0.5142542790619751,23838.26854420821,12281.52598653067,13103.111692771954,64813.52165141461,35297.578124501895,270.9828360222717,10.032285504203193,23.309736288342013,6704.230338612447,942.6079669649463,591.1663925524338,0,Low Risk (No Failure)
187.7408544829364,3587.4428736599193,32026.036832047375,0.2421721230472771,55454.59752234422,14448.352658626327,4170.771092774556,36760.704906047344,12395.482422589632,272.3135365318384,8.246916873984365,23.388549455120646,6465.246014567252,654.9119996451257,772.2891428946583,1,High Risk (Failure)
166.97162347566626,8765.455123519409,29360.998790779817,0.6591135216215475,16032.679324797511,23037.265689225496,7689.442316951392,45982.76407803622,15311.191744753782,237.25577326394284,11.292374365130549,21.58131949084955,8679.16891466081,1844.9434276574923,665.5637232840799,1,High Risk (Failure)
79.36400007763089,19972.837618414218,28796.890348199664,0.19986029727419885,56151.37977040522,17130.974225757855,7571.046729476761,56129.89920016349,40162.47424953033,200.95010625316132,11.34890532031378,18.94233283578071,4454.800735897292,1124.8002310188135,610.8271689607684,1,High Risk (Failure)
72.98386856579826,28074.845957217727,21945.475129987233,0.9949499861219419,29466.99117555859,25190.585787544933,8529.062272245985,19439.115637676216,13385.235082433126,231.1598708818343,9.295409242670708,18.264081216157898,8422.033630823415,1182.716385748331,1496.078001993556,0,Low Risk (No Failure)
88.56714592869338,15090.682579498782,25836.25922111822,0.20445132623253004,16810.818972477868,21600.54016799948,8612.43902738779,53541.013233833626,23233.939633517548,201.63305437086893,10.991448980994427,24.085628090997858,4963.974308738218,726.3859979818444,1232.408548065399,1,High Risk (Failure)
123.84043261922085,17842.288924818225,26009.190616514214,0.9353422813969053,28579.090076260385,8693.714460352856,11151.062747152626,63158.719077821544,57136.78774682719,288.2201381310116,10.449972368724023,18.722246082871127,4022.309090233381,906.3729813708487,1026.7407042619689,1,High Risk (Failure)
114.24476656779211,6939.269862630075,11807.023017314248,0.2485493107511796,31734.622706486607,21917.140835716214,10047.818052222794,24516.774195286947,69753.27441184365,260.99061790174983,11.14837912153449,20.925022439532782,6001.78476055684,793.5728768390261,932.0126432897782,1,High Risk (Failure)
96.26502435631808,11614.819706648943,33498.650279966125,0.6839803325601894,47741.21024527378,29108.822416004143,5355.388615413468,21726.872498599623,10672.323583448275,255.94053041076003,11.992465258401124,20.659501753827954,5810.497455590598,1727.1481563056498,1465.018775220905,1,High Risk (Failure)
98.32990250671558,6852.0534993212505,12206.814991866358,0.850805957967449,17514.972071388387,18213.961560842043,4620.755494810608,60194.24575637983,11506.39837031064,183.40736241350388,9.096546444617672,21.836443635880748,6536.567884004547,1705.489763129145,842.3998055737901,1,High Risk (Failure)
162.03011950334968,15488.933947964098,11690.379242356341,0.5060738984667101,20503.694233217575,26192.229859116138,8541.404154994052,27523.073765018675,69416.12181340357,276.9785851292668,9.105668187217734,20.738100895216267,5825.595457406409,1454.2711109953234,787.8002554391088,0,Low Risk (No Failure)
142.4009055535557,9375.489128668598,20125.30461014129,0.286087778204969,18490.600826796053,10108.812013209874,4971.631434633924,46678.46592355538,12709.34872645602,158.8064568062062,11.692835066562601,20.30595787696635,7538.693154578596,1688.4699889061483,898.6517644265584,0,Low Risk (No Failure)
157.0286495455344,29321.911482135267,9788.897997582922,0.48821935919923853,54046.90265022947,18151.090622273885,13180.682725143712,14700.173274836288,41373.94502429523,254.48412760480826,9.33276000279719,23.590183536507983,3872.4366833218537,1539.0224154093958,1219.2472144074454,1,High Risk (Failure)
135.04651960290462,17406.79536251289,11007.984641539884,0.7652433228607584,23873.671156741846,29993.30210739181,14809.014525449633,51892.50978714041,29825.988750042437,192.59023356142455,11.308392380987456,19.312920589056176,5582.396069662833,860.0942024058551,1324.7144317460068,0,Low Risk (No Failure)
77.11690221231335,5953.597482880111,34309.131638787825,0.45071798553214737,46670.145226559915,9801.244159900942,7925.7349694171335,46650.634541456435,61833.303480100614,210.76088247270673,11.428714540746226,20.151488673851937,6699.186272259865,764.0979219039873,743.2682879288013,1,High Risk (Failure)
82.13945515528906,16427.661229852674,11109.459233698322,0.25520212401559794,51461.17999908076,27429.262489921504,12264.72977973604,57151.35017554708,54837.055285423696,240.10987857510955,8.678025017332214,20.79792252021635,7780.7442251031725,1074.5832681212094,630.9641001126504,0,Low Risk (No Failure)
84.38656213286679,18033.72618869173,23708.778418917926,0.07610105583336235,22123.928912275955,5141.877821317718,2985.9773631621365,35368.29292846119,57818.10462873735,198.1309804905842,10.605927740977746,18.539213214372488,5267.251413263057,1023.1538459288204,566.9820750092867,1,High Risk (Failure)
122.10651298031928,5590.208470281836,5848.547848729392,0.7385570406335566,49704.04630664851,7604.451812700173,5833.429036203787,34309.50426400215,68550.63178212674,286.73571726936575,11.304369111443144,23.653000959615518,5284.095493230587,1185.7870532041356,818.5404562463264,1,High Risk (Failure)
215.13354044232938,6729.1212646758695,29297.393609182713,0.8703290345540943,16959.59600295189,18391.62769833507,6107.769152745327,66633.17780407325,48126.00481941572,131.9324087066151,9.548424724671913,24.72899426104427,4619.929259119934,1193.9524368331304,732.195275565526,1,High Risk (Failure)
109.56605747345588,14204.533744449463,31028.565985673973,0.7256918489147458,53883.1726415461,12071.791446185154,2755.1924967169866,46558.679401329,34640.48765265012,203.65128999217,10.342023021394976,22.912877757161343,8783.03975999375,1058.7768260100347,664.2372800741645,1,High Risk (Failure)
107.4579971451349,1268.3231506411682,32801.3853592332,0.7858716255931055,21183.444160529634,15689.518424326183,14583.329546162468,22943.841300071475,67346.5974544923,132.14999099439171,10.439923057788773,19.519266581557254,6893.6278178871435,638.6232279095776,1150.106240617959,0,Low Risk (No Failure)
118.9355542070962,15932.89775695949,7514.253004614928,0.0583962240591539,53186.37851400025,29779.95025797975,3755.775418571902,53384.40240968851,10394.536462819371,235.66531101157602,9.426727535504794,18.79727535784542,8468.8031782492,1605.7956000907611,1010.6187156501921,0,Low Risk (No Failure)
63.530583789166535,22896.977919817127,17325.29532442729,0.01376469333539998,46615.945648389905,11227.321361417846,12792.31990538502,54235.01803364785,12346.611003550537,287.53872687763607,8.373473409082052,24.706038649825608,9497.452941741529,1234.410821113328,744.1473194415832,0,Low Risk (No Failure)
140.3512016529988,10280.467279534361,33134.816209771496,0.1498162860461033,38968.473481295194,29308.46695859702,4772.904165274702,25605.622810465895,55317.76916512308,285.8598961064962,11.615109069613318,20.06621781122703,7327.78154150554,582.5145523840401,1241.8724080993609,1,High Risk (Failure)
197.41068338690474,11940.307585755167,29748.154394521924,0.8193698179343586,28018.694269682397,24738.76503949417,13732.817105928183,36947.56872514161,69870.36598705844,103.60383818145937,8.436959301087171,18.33938119625963,7623.256226408266,1282.9129715923414,1044.0098884623114,0,Low Risk (No Failure)
64.90440035292897,9302.116001246286,17105.682995216885,0.3835018811159071,38970.497696606246,26397.03273657351,5163.226089043332,48076.486988870405,26636.663648059814,134.67638916458264,8.08260739991268,20.245446095691076,3499.2217176186855,1667.4308784517802,796.6832096481694,1,High Risk (Failure)
139.40140046117784,26957.900842921084,12128.636526812614,0.14817773032947368,33215.79326377822,28809.87935159879,12403.93891467971,67597.94882272385,49261.921934595295,114.58147794450777,10.672811922302838,20.530668537480576,3914.6866386670363,1973.4459518738238,1101.0271721512663,1,High Risk (Failure)
171.19217422439388,16299.809050335161,11548.084485601583,0.39508852235663283,17739.26993811304,14523.754318379857,10521.541975689552,48542.66271146662,28568.624015171947,239.46432162041853,8.200719510367016,23.018738913543185,9692.9348278295,608.7986519005601,1019.2931618447624,1,High Risk (Failure)
170.72808848635918,12025.654941280149,10850.90695367463,0.07890327258458218,43243.88106480779,9178.671874827742,10545.894566210294,17260.07300087214,45435.19636283102,237.85616964089408,11.157175687985898,18.213286535535673,4726.931431897098,1905.8414487703076,1362.7169391506204,0,Low Risk (No Failure)
134.19174479039714,14758.612510268049,23364.98662169437,0.3900382776543051,47523.33454972296,6850.114392487561,11817.624116536777,41138.76118868838,44835.14537708015,262.72610289593604,10.498362316685371,24.53844503887557,5967.94470638279,1374.9571152820945,1030.4533421568117,1,High Risk (Failure)
80.32968202430156,23460.082490473935,19521.168206835453,0.3258355948449989,29667.819477949586,10144.263048859284,13554.971716176533,64397.34190220768,22011.952999030786,281.8592656449117,11.534991844717972,22.604012619482535,3388.893976143774,1067.7945089547516,915.5949227512183,1,High Risk (Failure)
181.3181561126546,3376.2147321062375,20969.91807761308,0.798678105907632,38473.71884657933,12014.61709233727,7354.523833255864,26010.3792420145,25954.940766319094,219.91652941564956,9.125297714245308,23.508117787345633,7176.343770378534,597.0032892465098,1026.9500770175878,1,High Risk (Failure)
68.58156664333293,9332.579663601833,11553.147349660412,0.29714931868899164,26476.605133640704,14722.574347287455,3495.0578641777806,66038.2759452819,61252.57654520453,239.3552909416736,11.96553108706294,20.86943381851538,7543.890659960581,726.4887859217888,1254.1492281100811,0,Low Risk (No Failure)
109.9503578510607,12509.75136852265,21671.10622160904,0.07088550580912611,50536.25307316445,26236.70064963687,10841.107176306623,48090.86405137426,34525.09754267098,267.21797058372283,11.971421766610174,19.74226491340865,7092.547778804468,804.6665039411298,1331.4476676241916,0,Low Risk (No Failure)
109.49963485804514,21383.126877452938,22621.003383724583,0.02977190740713198,43640.02625319407,13466.548655911813,3487.2311539850157,61995.24744229113,40105.550402113106,251.92126905358882,10.707675410858712,23.234682233049085,9051.858631354982,1691.62054162981,1068.7447201867783,1,High Risk (Failure)
189.99581136706746,24140.3524883457,22590.92423968858,0.053330789838588966,53570.217404281524,6894.012623031483,4194.77289523292,29120.4485123203,43358.29952726883,148.43070444276856,8.018276678477138,19.405666895375656,9982.003450386124,1412.0640719875805,1163.225386569844,0,Low Risk (No Failure)
207.33470121877957,9162.841771076663,29996.28370730787,0.7153532125002056,31456.52385877831,11799.82440650598,4662.254344112939,61731.70828195713,25199.10538821117,282.2703005097703,11.628418242190097,19.38000828863477,9187.43804610967,1897.89836987767,1026.2959898284719,1,High Risk (Failure)
126.9771639869328,26573.789223799802,21683.466244616393,0.3737335168314674,56126.24605032149,21304.961554801408,8922.001571534522,53128.88336357717,69203.99108404525,107.1528707200736,11.907429782534056,20.718262198053555,9311.119476824486,1280.3461600378782,1272.3447053989316,0,Low Risk (No Failure)
171.37277785072627,11795.11356039607,32930.66837212982,0.3663833922565851,19737.28779928523,24354.834403187244,2494.3882505221045,49494.28926347459,36726.496235327584,154.933283547399,11.162468071878646,18.872466298585337,8262.50016599699,987.1484191887306,572.0227850440928,0,Low Risk (No Failure)
166.408958241061,14956.944603000546,25604.63647976888,0.9121359019231834,49884.509275537705,14697.815759678213,2403.1035853611124,15551.78965128752,63954.24411125097,178.2379519793177,9.193816954424552,22.173134775402136,9090.89700521775,1110.6515206306422,1156.8913480909814,0,Low Risk (No Failure)
159.9654180463044,20578.76668948817,12907.18852755803,0.2653240700646672,45109.29501848658,22304.657209502926,5016.3465691069105,34574.39631812567,16681.949401893464,145.93060940121612,9.309798529276014,20.30237506946601,9722.024801557527,1665.2664741713709,1370.042794795425,1,High Risk (Failure)
103.07891695190095,1507.4482056342695,27524.34144123317,0.8344499573477631,54052.256117911624,5740.989579400939,2143.5920382125073,30206.513020350947,24653.3007395356,110.01721828358004,11.958405520369327,19.582662013235137,3157.164638584103,565.1382351227387,1461.3889191433145,1,High Risk (Failure)
189.52257195598048,29984.35975073052,24026.839964408446,0.3769938292104549,50885.902066768045,15310.093918414806,6102.578577770853,54774.77674742608,17390.200244616488,273.10632897546225,10.831170924105706,23.624085420665324,6939.286588579735,736.2706801033329,580.6034221194848,1,High Risk (Failure)
166.80923816336434,11303.235252870756,21432.197284074107,0.12952660990035236,33196.929032231055,8742.141677515956,9131.651629526896,31692.424929905406,24976.537112788654,225.20728966411002,10.374311100479783,18.828132718615194,9287.940925330375,1005.2551885502451,1406.1565523978422,1,High Risk (Failure)
82.86015381430587,4409.160224507161,7259.642965022145,0.7824394094988749,37835.35785315855,23326.17964728959,3764.014046720846,62546.46277420147,41406.92514452209,287.9843785226344,9.87475696701431,18.70923427374233,8973.14131326689,539.9165925855774,690.6574514000914,1,High Risk (Failure)
90.76624300938732,20204.732591558197,7731.985462465429,0.7469036553555233,58458.016555630325,11990.958201293171,5376.310409488405,40728.80086285896,21002.629275289975,230.5217675848795,10.773402178189533,19.11500214152317,4104.260900918853,1083.2748717398106,1203.0764472428946,1,High Risk (Failure)
131.7777009527268,9464.148134055593,32447.95705310889,0.040699795253807625,46463.25187456329,18929.329163873514,7253.120027085954,53506.59240051308,25806.496281214808,290.14486140487725,8.54573291809828,23.34673734812672,7957.015716714948,1477.4991110703959,555.3015858893008,1,High Risk (Failure)
163.65079135848453,21459.402906104093,8032.294771152279,0.7310357583283108,38295.76436385335,5474.1596182760295,9194.096071908985,35493.102273979064,51079.613901057484,255.51238524217595,8.367564973082036,20.48552999157951,9210.065094436679,1174.2722528558656,1372.3128031047231,1,High Risk (Failure)
143.22718276972017,26948.097623362355,17772.848447909157,0.15883769538201564,24888.80689728303,20905.64668579075,4013.1904022757512,69132.29279044268,56148.16724031066,214.73173726449932,11.55350777223295,18.652396322211345,3539.6594030260308,969.0450659739795,912.5899427802374,1,High Risk (Failure)
159.74495330551042,27500.621156123383,34703.293512047516,0.6180906231649904,51589.7420727537,12568.224849298627,2478.3029198894765,61960.09181552802,12284.000983970673,278.81195098562307,11.037796523617864,24.792698777835298,5583.946624437787,1356.637878530698,888.8859923772904,1,High Risk (Failure)
154.7852455455228,24252.951096389937,34579.229530565586,0.11240471127794882,15923.513027063189,6418.779554325597,10533.13732314489,20972.22611407809,23160.018527020875,246.67530586813422,8.319333668691254,19.719565068414237,9258.240628280819,1116.7107201871295,1186.6049526758757,1,High Risk (Failure)
179.99367526386845,28832.625922397106,16248.936472235877,0.6621273488542488,42492.82962463248,17141.49689016449,1000.9449670520421,53894.962711530105,28089.986551060316,233.73013548703122,10.472255342541018,21.94213011884779,5377.711908685835,1035.2355686853512,837.5496083014473,1,High Risk (Failure)
68.06668377635347,24525.686193639376,12480.569327201058,0.02891182326655728,39846.921879616646,23967.995056791133,9300.423660994998,20013.354338743135,24488.304664864147,246.70049969771225,11.30500978266301,22.385916096246895,5393.624987803727,1305.8948869538108,854.5687311847482,0,Low Risk (No Failure)
128.84894318391403,16946.430713530102,33573.53789439156,0.9962420986170206,19156.040620766795,13880.825801663503,1662.7150433282156,65661.6639851101,60589.35412357204,176.1326533861997,8.232604469083132,23.660979473074192,9794.058607763893,1221.7420992551647,940.0196053561892,1,High Risk (Failure)
137.92990701102974,11199.58472080544,26877.992175099,0.5772022361259574,58319.346310234236,14667.442748685135,10566.618789816077,53532.996412454464,33602.044637996085,239.63120064092976,11.975965692821106,18.785787435067572,3635.864294740548,1819.7640891014764,630.3742366021926,1,High Risk (Failure)
155.17558072030553,5078.946837776335,23865.817560335065,0.7363897900500447,33392.06352327835,21216.63681156603,2001.26230093702,48670.52765693906,44487.21623583841,279.9074160776246,8.960921593008864,23.710198721084065,7614.837866356287,1667.301085305546,952.0259346305842,0,Low Risk (No Failure)
201.99503043406116,5493.311774800141,30270.703631551463,0.7161350631535696,43547.8766773688,14651.194163932762,8151.621569837562,48134.5922424745,50486.05436539768,195.47100872380184,8.199126223914643,18.633943288881802,7530.359351943054,1917.600409031009,1432.6742314462972,0,Low Risk (No Failure)
172.27812382036115,14802.324308884,8046.698102875365,0.36177753443873406,23993.12665885035,5657.249496879503,11414.90459182835,28341.16914767336,29069.5770616288,281.19158275786543,11.37327625981407,19.4584422801113,4115.893355505982,1976.5273785913707,1435.5311094229041,0,Low Risk (No Failure)
190.75555203219454,20621.899773022687,30473.96743965532,0.4236901786604971,23717.795378846517,21896.368440678623,1837.3186549326126,18686.05016443371,44963.74955501862,158.29906256275837,11.071855608192713,20.983943958002005,9112.81566949316,1624.803591902846,712.0472814467283,1,High Risk (Failure)
94.56610920153594,16807.418972936815,34902.013108831445,0.9736076488006986,28826.4741507965,12965.11078366232,7455.7968904724585,20658.339602638494,50259.67468050131,101.77465799748467,9.398582769680443,22.361533529492192,6593.757848142812,921.5557483416412,1161.0751127809226,1,High Risk (Failure)
209.26797801114753,9087.285861567983,7561.0633797969585,0.26357448820138385,53133.93994319951,5694.819749176951,1579.6400285797722,44896.82318919317,53517.65913657542,292.37746763835753,8.589907661191548,20.621396868433344,3695.261030528465,1338.619881088448,1259.5474083951754,1,High Risk (Failure)
116.87888167061718,17410.76954795101,34382.615410327984,0.727012454699724,18389.05455557084,12393.79243158825,10643.358501402587,54797.08789801753,56200.26479514595,243.9211699221326,8.933083438976809,20.452841678750122,8396.343938783259,1757.0803150515867,1265.2538682911645,1,High Risk (Failure)
191.35696276786254,29237.071910655766,17165.63465610608,0.20679636635760645,46544.680229511694,20379.395284581056,9668.638483468763,57659.53709623535,40139.54735981174,297.04505820946986,10.708345568728339,24.60917473709501,7776.665143863393,769.8099524703164,646.7074688320288,0,Low Risk (No Failure)
194.06533997628858,8397.529450220547,32494.050459981696,0.32059390708031776,47888.737037005645,25413.87560101291,3336.7709797291827,10637.153948617597,40934.93981971947,195.86927025349397,11.546130371834535,22.258775747753344,6306.235928856783,1279.687708725026,710.056162212863,0,Low Risk (No Failure)
192.59343741088102,2138.3385390589974,21068.949585416958,0.38066826380391905,57706.866447748675,25543.641213455863,4687.529035656936,65017.74104376936,42103.490290975125,131.9089977859586,9.560087850425452,24.183901818966312,4096.703135107004,599.0319998493922,882.6628887745604,0,Low Risk (No Failure)
183.19896849577773,14563.897863163376,31223.113881986323,0.9003760223475992,46892.95496541892,25420.050574739005,6634.259780375962,64266.3140402639,28674.190956737104,190.6689496186895,10.046243599143038,19.084711958350805,7741.934517799817,1777.6031171090208,1300.0876009861672,1,High Risk (Failure)
148.63892088050096,27337.49827519858,21316.952621394426,0.10244211623265342,20193.64075910931,9523.270368552237,7559.25428767105,22697.934040416658,27672.981988683467,166.63412007215567,9.33082035655597,20.608309017913186,3514.330781186105,1988.4946803981184,930.5999454894447,0,Low Risk (No Failure)
73.65594689258302,7133.695729171273,22622.454913780002,0.7219239699289334,51500.742182878814,20003.816201840367,9058.390856142982,53951.42483725132,56024.599452152666,112.63165677553422,10.85114172315146,20.755646318700418,7709.711279063603,1850.9147365995707,889.3856571022203,1,High Risk (Failure)
188.66649039742146,6478.964599183618,34138.886822856366,0.39244484417692493,33185.228169577196,11485.343777144359,2609.993373237535,48727.445039005135,35730.36637724447,122.12371362986988,11.9046446083237,20.71167581604314,5204.136047616905,1349.0766145275923,940.368200423601,0,Low Risk (No Failure)
170.1810606892601,21184.9108026843,30868.15188058818,0.6427335452703044,54293.28414002845,26113.660481867686,1763.9740896865546,34864.76984731917,44493.551858901636,277.58576083197113,8.172331474981117,21.637351440315065,6586.038829996323,952.7199937257237,1236.2610760106545,0,Low Risk (No Failure)
146.44790508183996,28046.725802893863,31417.473293629,0.2965217203911461,41019.207255446825,12277.181624855759,9323.443363938506,11219.886578405849,48397.27530097095,230.5141097467808,10.575990733600754,21.722927433792563,6222.147264034005,534.65897331405,1132.5977431042465,0,Low Risk (No Failure)
179.8991098631931,7786.817083899363,16651.795411516607,0.5021280957856249,47466.843424644714,20726.535117316947,11934.369744315376,55092.0346722827,61974.923853095745,184.2539351978806,8.266666718582403,18.569781335053317,3645.0703041805614,1314.6890527151477,714.2401846037145,0,Low Risk (No Failure)
165.35229354534806,15133.869429716102,15402.802157602058,0.697141350492399,49825.44010350703,7600.2122264729915,14760.839624436607,20150.523456964627,63871.69037678602,259.25526785205454,10.621679501195,24.955113555203877,9087.774296804353,1890.9263924647908,966.5002939436806,1,High Risk (Failure)
114.73307979454519,8771.920739646961,19473.544111433526,0.5507657263721529,43722.40287390651,14683.593491450865,4167.908135165631,12552.854156238138,49476.862322653324,228.1692465792883,9.309555891834671,23.055538403306322,5800.184866424223,1725.4208603337156,1243.590535685547,1,High Risk (Failure)
208.16952957092246,27603.118143695716,26464.52539323168,0.08764237882974013,55166.26993753291,25680.841820103564,14932.867674576839,39792.24940495643,11901.046332492826,103.39362232148738,11.71933344691379,20.246776510444565,7992.605402552987,1751.1443711566328,866.721599664848,0,Low Risk (No Failure)
103.3030307170825,21596.085601171682,29443.885179799283,0.5548943761752093,22972.44395691477,10289.595822387299,6585.725663858233,39048.73902659151,43222.31660054506,209.36956019342978,9.864951391971244,22.786728589912265,3852.5004303887026,1364.7880942663119,1232.8673860931801,0,Low Risk (No Failure)
60.021550880717655,10285.25385542472,29620.261502032114,0.018730292060419873,41163.21465961458,27789.734691818263,13097.98346168727,11535.490434970192,16534.422119441926,273.38190555029075,8.279499240732529,23.530749136001834,4436.5158317794585,1577.7722042736707,1237.0807486825306,1,High Risk (Failure)
188.9038088581347,19812.156233458027,30281.573706184055,0.8224243845798085,30673.473782378467,6701.226375124099,4665.152074092461,59351.489100516985,55661.72940044901,215.34266100217377,8.89160923746701,21.969352988256908,4220.797112735248,1786.5064167222145,1050.7479094428181,0,Low Risk (No Failure)
216.34786947541076,16605.50929115458,9001.977055324682,0.4814936785493943,15819.631391939007,8970.397404339195,14210.429339972246,24704.551689582724,33652.58582692684,251.93058369076894,10.23661355030805,19.415949481315625,6134.992421091576,1725.0505810201485,1085.8321753985995,1,High Risk (Failure)
80.15283142069732,8348.545119221806,33924.37387596675,0.0665719473024351,21150.974387574734,13738.952812775711,8090.405636233203,57996.76757250488,10005.615631496341,267.19944836898713,11.646364113404431,18.55508018602935,4837.324921224419,1201.95906976292,995.6912303231593,0,Low Risk (No Failure)
145.72394945196135,14588.152843142905,16749.996286364265,0.4931955197879292,50230.686461305195,7854.594199698981,3165.896346076351,40436.96629952334,26640.12323338453,138.7648604655441,8.602981818437952,18.411518936119677,9060.100336739048,900.1656081294525,1487.7643491141077,1,High Risk (Failure)
166.6340876042937,27711.01510268786,23322.454848629284,0.3269584202701765,33151.063728204375,19689.399441081812,14029.571754019178,58014.50458342028,37015.57004458492,262.8009194634635,10.98189870033775,20.66211336852815,3101.627608424235,1614.7092297018862,1032.361568446491,0,Low Risk (No Failure)
124.68635956077905,25297.400046260038,17816.090818455035,0.7740033129097597,36284.26949934602,13106.450017449051,12606.565648596152,22612.623637413963,25040.97789210685,163.53462389457366,10.361656779246855,24.367081166713167,7276.033397553237,1739.2138230502626,1488.0847028325143,1,High Risk (Failure)
215.30824726555906,8780.004593153144,24233.58395155938,0.8816479545748106,24106.36021448052,22803.312111814706,2029.7364541072545,13404.945409159123,39751.17264733388,128.25159064079187,11.933016095275788,22.429431404781173,7530.7613565414385,1702.9568004141204,900.7972851593137,0,Low Risk (No Failure)
132.04067938286244,26017.579725426047,10777.28292040521,0.9711055083647545,47897.986798430604,6685.365678571196,14801.765893256039,43071.83127950926,47773.02197540426,214.49058102930002,10.115268925792824,21.636350701316346,5105.573821681614,817.2066653241607,1139.2487517068298,0,Low Risk (No Failure)
78.01286246590992,27455.382271933515,14850.562214321546,0.3547249679475275,57619.932636551515,29139.37449316846,3986.9005846176,42170.02992148696,67063.78178337388,206.07138090712812,11.003853944607279,18.49249687209057,3733.6439250046596,1378.8687475714714,650.2388905740555,1,High Risk (Failure)
119.63016272197024,5386.664249417602,18438.27251531493,0.9085240305005123,24548.03047990085,20465.298997245172,5084.070534283237,50947.06111771513,15845.618198632128,252.4147446077368,8.250193492941662,23.444057844631757,3032.8009785491176,1527.079464597222,1350.7740241149272,1,High Risk (Failure)
157.33112000124348,2742.121882294491,34167.79405225132,0.216319969018972,37964.066253541794,29644.151764068363,7914.115750727932,23671.784500356476,38791.08808122217,223.06377285729238,9.788271995020116,24.548131443551075,4785.83674905385,1793.7228917796267,880.2763560321702,0,Low Risk (No Failure)
192.89910524603667,6460.773222596086,13553.995255421261,0.019719732204312557,19920.927000973785,10150.684298023567,4454.175244359649,54840.58050661182,23600.001671004007,252.7402971987878,10.34259909440931,22.70081941627103,5070.101168417962,566.3387741476397,1457.2767180753456,1,High Risk (Failure)
174.61174209002917,28886.73182537896,11751.211971325982,0.14341861223627494,16423.60277458196,16480.281965894468,13220.775198287927,35565.557006641924,48583.78254405493,272.44086485724074,8.547813978963974,18.458210807359062,4639.642203448177,1063.4799598641907,825.6211439023973,1,High Risk (Failure)
87.75936805680352,5166.941130342169,16197.851960878064,0.9660120961276054,27903.286024768273,17913.48313269357,13606.330963969152,56080.488318553274,69998.32884207895,126.49520970205552,9.276567442531132,21.07533053381667,3405.990570552895,1288.609207346794,976.3588013174561,0,Low Risk (No Failure)
83.51403353411355,22507.496739911006,27500.455376860857,0.26369825545106695,26031.660895385307,25769.488319672968,14209.050444383129,58223.52983896523,40354.62866714175,187.87337719367258,10.859523368028201,23.23922913204669,3946.0810850971634,575.0424793465284,1247.1389965183814,1,High Risk (Failure)
156.95951476336407,29417.51855068903,13448.018307057542,0.8952948141563388,48802.492985803074,8984.827711545944,5627.395285618132,35678.941583514985,69179.79875995935,183.4358820473433,10.148630690785204,20.7999317583736,6333.56695740994,1027.6230558153711,925.981511057963,0,Low Risk (No Failure)
87.47102523287194,20412.949863355658,25227.09684884597,0.6597044821470919,55724.78516875462,29638.72487224064,6993.42962056161,56796.782980078846,59376.10368836444,261.25059473839053,8.899909607936396,18.47810282468856,6132.331554455194,1897.391227541438,1472.0633938453807,0,Low Risk (No Failure)
70.27342993202146,25252.44807997134,31873.965725265247,0.020249379790092115,37999.693793142804,19038.226826361068,6042.132640371235,46553.46999541011,50059.20565467285,178.909500896974,10.918060352706412,18.422740370565762,3150.6596291793076,1671.1798815604086,901.1990928864997,1,High Risk (Failure)
74.17606874873876,22829.086996953305,34801.18364480525,0.9582856281444737,40261.6057748265,5006.0220996791895,8591.594208009861,55061.601616799686,49006.69182640968,127.1397915833502,9.543968028880393,18.390207739939612,5709.979482787099,854.0410791572942,1116.5811129293513,1,High Risk (Failure)
84.62398475100379,13645.400641205048,19608.221397177447,0.07949174835268746,56332.95678098474,9696.032213363624,12438.432071141704,15686.8304707247,62044.33717554561,264.43043768861895,9.41907182666023,20.66866148275321,8770.210383619164,581.7192363300811,1306.4583479096764,0,Low Risk (No Failure)
198.57530137787063,8248.810455945371,23761.92889641238,0.8459619526959559,47654.495863973985,18121.208863594817,7298.320635848661,41370.173501229496,45176.625955733296,255.544549401146,9.657903419592499,22.16635231263445,8347.90003713287,706.823856958141,1222.1371784026574,0,Low Risk (No Failure)
204.66539111899974,25254.978744901582,32855.66225127289,0.15415604962534146,31287.9332241703,14194.439827885395,9281.30475053498,48930.35944014681,45694.28121401116,271.3785198817138,10.631839090076356,24.10494651825781,7782.198840483998,1646.8076908625987,1223.2787995118204,1,High Risk (Failure)
94.91320552834756,15573.880594938671,30353.218970162365,0.4390946215718754,31445.437163472317,25172.828787311635,1038.6350790739339,39288.33535986506,55930.71382426352,282.2966356345707,8.181972784474294,23.572469873760586,5238.551212039089,704.3747222111475,1225.914567010431,0,Low Risk (No Failure)
133.5334491541797,25018.169978711234,20443.021222263287,0.9343300082169445,31793.255693865678,5802.794768414134,6004.686251014054,50502.04448624135,21167.876720579712,232.21581952149123,10.401411524230328,21.896505839941145,9995.43314101722,1285.2634525893895,1149.2838557600032,0,Low Risk (No Failure)
166.21191597643602,9447.518668959652,13901.188675096988,0.2870001790789699,48634.91363942516,17750.755220081366,13656.873425464442,57378.51409848545,48886.02022169857,206.8008071102146,11.194079361414133,21.16771458896544,6842.2060965287765,1581.6631464425616,537.8225495812363,0,Low Risk (No Failure)
203.45194535504163,21889.364577878237,19141.044671044718,0.00967253884691921,58047.29274586074,12155.093511389743,7392.288871027056,63309.8529129727,49496.355982996894,255.7892554378215,9.923213554690482,23.223335800356004,5779.962100499142,1602.6186297510753,832.2148949798111,0,Low Risk (No Failure)
198.3555802008085,9486.997832354828,5923.493067129204,0.51455309133378,37321.566423281896,20740.64295660421,3348.5553821175067,25646.946632005463,22568.896126045376,122.34117794905157,11.567974532997422,21.837061257904246,8408.54443329699,1351.2760769142276,947.28827842314,1,High Risk (Failure)
213.00670104213782,6955.6773560095735,20418.99537567937,0.6894117084305128,38381.51752504156,21048.789272607617,13967.18720076227,67510.36417714819,61901.72103577945,251.83428042800878,10.590368312214522,24.883221936559874,5142.606638635612,1151.5942620576402,930.833257591122,0,Low Risk (No Failure)
156.04022561593328,9508.300591906373,28070.697163479435,0.7897654877946664,32712.46538750799,7264.211837546526,9115.901347370509,28310.900457223852,59881.19723176919,193.7543156971442,8.673734190906268,24.779253940817238,7420.731904250975,1072.1972600385782,1275.1506934839329,0,Low Risk (No Failure)
96.79273694257378,27428.912670275855,23290.807081221155,0.0381316140914727,19251.77438305336,19151.353902151328,9434.47932559861,65081.11243418072,32397.366352371497,272.9700793299345,10.55405720337917,23.11451071275868,6722.096665622888,1842.8401539037227,965.3689763081645,1,High Risk (Failure)
175.96268344460185,26336.663002261714,12638.805999586864,0.8098764150385693,24166.648124545936,7280.356968816244,5982.973934691515,29526.02541045317,55692.455357765415,156.3243936578202,8.119762054841505,22.544784774246924,4183.804745409073,610.9650358544304,782.2773987635783,1,High Risk (Failure)
69.36814867903666,24547.06452933325,7725.145431842426,0.7292519731284146,19868.399579609726,9170.95729104061,6025.452804880021,33129.530652541434,46311.00536601504,243.4537737964993,11.873178756850661,21.67527231520658,6774.417544466423,1895.9654905290142,1163.1079606327435,1,High Risk (Failure)
72.89846482713628,8688.574581926445,9662.033862170465,0.7624196216457234,58770.09555151093,14464.171254728415,12871.68804134399,36968.38061222025,29130.284489999984,174.83268666972572,8.730498484565317,22.048006394499843,4377.398543238324,1950.3735970109115,658.3937029844661,0,Low Risk (No Failure)
94.61324442093232,14368.11817416365,18728.798977683233,0.48426042944661274,43646.73124282352,23456.301089423087,13658.933672185702,53388.17332195073,61008.21334740405,286.48726389267995,11.393733081471996,21.245071174486593,4962.327038328514,1353.769406925799,667.6141123515944,0,Low Risk (No Failure)
84.50312001343299,17188.72075811017,18581.7627988982,0.8955617303268776,52192.53001413277,20192.704184352537,5093.415512399528,56612.789585834435,50725.762952715355,188.5566436369241,10.221955235207123,20.335746902106994,6901.143190675733,1611.4904816717844,754.70953255249,0,Low Risk (No Failure)
134.67089934150533,19858.61224813172,19713.78575472464,0.7055631903608371,49851.64313044653,19114.078529436876,9827.574063592914,42030.58558231813,13944.424146373236,149.80880839640696,9.80277220203782,19.7687305306985,8024.926299209658,750.6765224929043,1085.7796936059294,0,Low Risk (No Failure)
127.11167903317018,26870.156181715,7260.646886866754,0.2793563232407599,46310.38378905421,29752.45298040129,10834.23342160162,46921.73538405558,69748.97311635205,145.81964628884657,8.981252599447348,18.656810892793988,8551.102163983993,1237.8588954403303,1270.172124680791,1,High Risk (Failure)
170.98915612503816,23412.362419368597,30097.813373928533,0.3260234522779849,42474.18422880296,24927.625558352338,1863.6803149759567,33153.378622562996,33353.32789134061,136.8711232411091,9.212618758414933,22.364916637324963,9235.877254599156,978.1702728191297,997.6020069330566,1,High Risk (Failure)
165.64843515221412,23445.85753152626,33964.56971023802,0.6817831212123454,15505.754219941962,19535.15392141416,5199.354882715794,51249.331719658454,57563.1467100598,235.94046458000867,11.144390577979783,19.835991488376088,9419.08971750602,1693.4607864561026,808.1849548609096,1,High Risk (Failure)
158.7306425788482,9629.550776783648,33760.71961735266,0.7958326589504415,16588.601453133135,27746.274371602132,14746.07569823091,32456.719435411243,35866.75730818212,195.29702368849934,11.019657497425948,24.331130237128324,7073.482589790578,988.3807866885572,1428.3073762634135,1,High Risk (Failure)
83.54612017519125,21815.055799670696,21121.515273181045,0.2705348441339891,40603.341116638185,11073.800004320667,7983.879728876722,49136.18014150602,39446.26094484996,107.90406768008467,10.610125238959984,19.743811163584667,4468.620715777876,1381.684914881694,1048.3618355825706,0,Low Risk (No Failure)
199.82241241000244,20727.26996158085,11675.631325323393,0.49149130225952253,24652.224347522213,6363.8278719877,5294.780500323424,19925.067208163127,36754.46411548677,254.34978839063896,8.524241994829344,19.27451522449191,9363.120753007679,1305.4013615653573,1361.5494303810376,1,High Risk (Failure)
97.39393310566928,28160.536324054337,6001.796145975722,0.2011841421666517,29081.322179484872,12440.525051274351,6693.904593605074,44822.12652068719,42476.38280333909,196.06377544003618,8.221399748654067,18.29394002340184,6841.016339757743,1802.0352100822197,1368.2006845469477,1,High Risk (Failure)
84.96298247078984,26219.84085955297,19298.724815258865,0.1855802367835554,36694.0205036016,17568.0327238681,9229.98982398517,52620.65431112484,22219.200061896903,169.22858528685845,9.674712542733182,24.14374775260439,5231.92602048823,1625.3766949291005,726.2452783488656,1,High Risk (Failure)
216.95798050602963,20681.142720980017,11345.858775902412,0.3015440132888654,44242.00514924855,18651.562415761444,11793.710689404277,38826.714310010735,64497.05001505352,140.48010785324058,11.31707597513999,20.61780388116674,7536.371340190416,1754.9938367569173,1341.3129912580216,1,High Risk (Failure)
80.4128484472902,4765.85338911855,33036.74217629846,0.2519082653674215,51500.30427333128,26881.540191449945,3901.966281887032,64247.799029499336,61147.89633289213,237.90004788802665,9.292991634402622,20.59587997425733,5392.100148190626,911.5426047086414,685.1899466499609,1,High Risk (Failure)
81.2815678251726,27847.86793534248,14359.146272972623,0.8850537530299657,41261.10838051599,8768.38708701958,10654.44600684147,56785.593124701576,63120.45705084808,202.47503869790762,10.167115774331654,22.91422954692741,8989.09076793311,1533.622379394352,1329.854637517622,0,Low Risk (No Failure)
196.7958431298359,26333.111710585574,23633.75897272487,0.08769670916230932,58464.8255824504,13834.603892554433,10542.094555598018,14887.683303753447,61585.69617203183,187.07424022852297,10.87043897953191,23.083634267297487,3183.4087771014097,1390.7955639171307,1254.8754506776693,0,Low Risk (No Failure)
218.31218095440903,8788.80852565603,20802.492496422426,0.7249131428523432,35391.02319240765,17111.783109433945,2681.9252684257362,17817.00522528341,33475.880648228886,246.7766270881738,8.363135382606957,18.42485826338777,6075.130424372398,1550.4747030703227,1394.7571968682553,0,Low Risk (No Failure)
87.60382031141793,4669.814024694941,32259.66684021079,0.8741096277181507,49755.34389992291,6132.37822106253,3746.680912389171,60847.71201488896,29306.72170829566,167.40835234241152,11.25913776757171,18.150841867897288,4123.807764538229,571.808343326176,1399.0604959099753,0,Low Risk (No Failure)
134.40152280422842,18289.29741266893,28890.37326438947,0.5395035904500061,46193.41517043275,9239.311413296047,10734.049111788812,69643.31124218498,21556.274158447897,142.60220381580683,11.674276749146529,20.373500008950725,4608.469061551393,1884.6964378517487,1152.788309558937,0,Low Risk (No Failure)
128.94200378588894,15447.489676045396,27908.95746641402,0.4592373913640909,43368.29333524702,13476.75215297366,6918.483255588611,39433.56248886167,54407.66261366363,146.15430889280978,10.627970376472387,20.039470021795537,8625.409854580244,606.8987638649895,1149.1812193185408,1,High Risk (Failure)
181.9684199201536,7613.792690100578,30091.07879030259,0.597398891187153,34026.15626019683,13697.538513696043,14059.57802187158,30990.77608144933,23583.528710993436,113.42386487675068,11.232200476003182,22.460828385783696,3077.0501381643253,1913.0989349818508,1277.4134874984065,0,Low Risk (No Failure)
205.28296726746598,17387.139952923055,6954.117160126878,0.8291514031551532,37751.74807608805,29811.208007485235,10488.534443825954,27350.09600555224,50787.41080795235,120.84010859415582,9.575997622131394,24.612363693736846,4481.501480841176,1743.4435354276266,1419.4876124640978,0,Low Risk (No Failure)
83.53175694864606,19855.427826923948,34294.48328602612,0.46332890154627304,50231.47438234028,11626.355799722183,2316.910686522614,67277.81791386806,48800.92588330833,269.86041809434323,8.985266663737143,23.33748334878461,7892.981668646766,668.5913775440745,1367.053475304684,1,High Risk (Failure)
203.1723760684238,3464.022406794526,17295.4301935505,0.8903091977745643,34145.21024483176,11943.428713856429,14627.627386625472,18529.512670643802,13489.496503037553,190.66527366813852,11.32809066071006,21.09828197583844,4657.64513974519,1220.8714674073785,840.837450776448,1,High Risk (Failure)
138.81889503885913,24965.319036416102,19168.428929864032,0.20638674224818077,30125.87162174155,7970.406181628679,11732.373325120598,25596.357408056996,47222.66117090604,207.73029005494647,9.176598925988266,23.5776968402615,6101.491619715442,707.5388501249859,1124.2750048273133,1,High Risk (Failure)
177.4642014466634,13556.218445351482,33698.01703301923,0.03672818890591556,24000.47652495135,26177.830587273,5995.224221866223,60676.472022594964,43259.077805417415,117.07665305854567,11.078034345086676,24.208316068443064,3155.477906639466,1034.2354559543621,834.1966219416463,0,Low Risk (No Failure)
195.17941564083662,14047.470651479656,19432.015725424208,0.35317346220970547,33596.29514549744,29823.013763348426,4908.644411908184,64410.47736657308,46920.84237999307,161.68873585922233,9.615557130391416,19.334368773680204,6175.734104393574,1048.4626996626407,917.9504870553397,0,Low Risk (No Failure)
103.86570664956893,4407.553366158826,20449.394319450344,0.1802715360183761,53266.11473577915,17297.71286662168,2209.6470466062656,49196.49472385338,57767.44328101166,132.84557413513596,9.468198693778339,18.524813388337062,5562.74825726927,1677.558438618866,1029.9801793459549,1,High Risk (Failure)
142.49536457268005,28297.08893829714,23821.265133060864,0.7154509636491239,54602.82141891693,7453.164914672259,7906.53588114963,48378.54811440096,41261.64501317605,101.28869366677857,10.977955124929577,24.677325364494507,4175.335501407435,777.3249090569316,825.9613077877195,1,High Risk (Failure)
171.31979023753874,9523.58605464308,25840.151887908727,0.21158213457049135,18953.528294693155,7237.516022387661,2003.796491923431,26342.045963216762,44367.01406154604,185.0799707562643,9.703070654192187,19.683844048961294,6700.498308839377,817.5382519462247,769.6741743788347,1,High Risk (Failure)
153.24909361335835,4473.039026533719,30668.078811620842,0.31252227132430643,56507.9112344629,7042.86892590762,1734.083995344891,67132.37525511126,59314.67024697351,151.9406520133062,8.175911244835826,24.47634522644224,6653.38832954831,1154.165325277639,582.8504103829325,1,High Risk (Failure)
119.88332732097925,4879.566204825072,30589.519070904098,0.5142714954425511,27703.997603439304,14357.85395709196,1145.588643034654,49130.97724704793,60773.25823590847,130.34092841740232,8.561968310572102,23.130992205148907,6838.536372130539,716.5472495541362,1260.4293598010697,1,High Risk (Failure)
65.90191157672524,26515.29469030257,28394.560268694306,0.9994590671864021,42050.823446862094,9748.291679939304,5205.037504126212,22200.439223003967,39052.42283912149,137.9438352372917,9.436882635778145,19.969790123843175,5915.584937779897,623.1713514664042,1278.8386091217521,1,High Risk (Failure)
142.60805572819123,14832.518385911959,32241.046290071645,0.6036019202212376,31593.759652752913,20393.345837053632,6014.354915930662,69354.20966636253,37106.22143968873,230.844677869478,9.094458199512331,18.353338261900245,4468.783477509622,1983.6290477724508,965.104911521469,1,High Risk (Failure)
96.28362005114332,9260.727621707796,7269.340419720489,0.3396763385456688,43809.864196515235,7748.124332479216,12298.086069841711,31235.445390557594,65590.70478334479,222.17492703928423,10.239104254712458,21.736675100240475,6134.734925604587,1768.916981379529,660.0793674579763,0,Low Risk (No Failure)
164.72179428498163,11827.24166992312,17882.5636055676,0.9805921238047873,55751.306306883176,17468.483270308454,4611.252926095506,40307.330340276305,15232.624055137283,260.67124558400144,9.148988989493239,18.82362616729497,9799.853579514358,1885.73051727673,1466.2659567326525,1,High Risk (Failure)
189.34491822299054,12910.311617009751,9106.40959075483,0.5353975274254769,18025.0455729569,14219.670997371086,8818.504994110623,37123.22455455507,12647.934913394904,192.4104376655065,9.495297963792089,24.75829607261653,3080.9105458366307,1795.8398218232585,734.8344714842234,0,Low Risk (No Failure)
96.77227612761895,16359.691284018869,21650.272594245536,0.05862955909861545,15262.872005467962,6942.811550088167,9380.403315671267,57735.34082617281,23646.743892175364,134.70104849229412,9.289063449733264,19.40467632318086,8492.598339712022,1004.4035823091464,661.5010648447053,0,Low Risk (No Failure)
206.63826417848227,28215.57815860856,8549.722190094146,0.8424664072126257,37233.265984494305,13593.11809570401,5116.407716503224,12139.45863020212,20034.000924120526,171.5624847021807,8.676893770070983,20.795560386681316,9232.175567541784,1118.1773922950279,1090.6515162588025,0,Low Risk (No Failure)
101.49358357073511,17165.31759543412,20235.861128479813,0.13963839922991228,22892.565073812566,27560.312464476257,4721.122628843749,57900.33971637096,15192.737043967552,140.61898526239867,11.269616444920523,22.450642445989367,5495.29747859923,1253.7740870719492,816.9515652483514,1,High Risk (Failure)
71.92810298876333,27695.540667974084,20107.306890157743,0.14070783082557425,33707.75546757887,26395.99063737299,9867.1070916512,46627.2728220536,35634.08395293224,128.30615977033284,9.593548164964607,24.96557128565065,5793.366821091018,816.5045305809767,593.585481741734,1,High Risk (Failure)
210.4368386279932,25746.198413330996,8011.024852851619,0.3983776756594306,34039.746657434844,13195.02421605274,12501.059015702802,56325.012546658465,63605.17363719455,217.9903966195227,8.027414848310892,24.18038935834013,6381.879599895539,781.5828809932946,924.4373012958731,1,High Risk (Failure)
122.90354071904244,23538.39137374868,28081.374393895177,0.4570252804809394,25983.600470811863,26854.359226092496,7093.079816284606,20764.54505149739,16686.33393253127,213.47955634190407,10.388240564586619,21.919463101671322,6272.105835184271,1164.670083914709,1089.773653598977,0,Low Risk (No Failure)
146.4019063367217,9942.211528609763,16571.501382830604,0.5232180199672922,32894.24362453558,20589.135154181702,6261.332571900269,65930.12062217828,42394.93156376066,258.1154586901438,10.355164162037983,18.563417147401537,4484.769508568852,1336.1814441591312,1117.4818182363938,1,High Risk (Failure)
161.16893289497273,2169.681712015107,23483.324012471632,0.529190098746567,57558.22898952537,22006.052112923266,8438.910564559126,54535.57293025345,64827.992111021085,288.5233804975278,8.929791762031268,20.747212187514993,3559.0600988998526,644.3988207872255,637.427082176215,1,High Risk (Failure)
81.85614458418762,19641.25945470039,30077.722190834404,0.5061700856552025,48922.18177618627,6296.902649924792,10032.380970963422,16114.027048417605,24199.541706677217,100.1054170092737,9.125616622615464,22.00303619183095,3418.864572697511,902.8854734835661,792.9982873665724,1,High Risk (Failure)
135.83386244205957,14858.153292480938,26005.647778821593,0.2910788813756463,23038.42709070984,16236.044956033209,7934.69485715219,45949.640024075496,13619.995309505388,246.2335722572275,8.845968177298124,23.75130758674815,8490.536014589212,1663.8970409891674,1450.9748214929562,1,High Risk (Failure)
106.4072851139899,27344.688888295685,15993.69939019939,0.6920306951531133,49000.68163947859,5862.2429919863425,10442.536319817773,52801.763360813784,28898.592640565817,117.49341112860836,8.437638657416592,24.99283185336799,9216.093459107211,945.3301853997478,708.6380835789348,1,High Risk (Failure)
179.43862481888385,22528.728175603672,14451.694898227981,0.0976099982297075,34774.90265829694,23894.18502373231,2406.5321102610587,40102.5118286869,26131.48500513131,229.93910351688046,11.424965858480775,19.33368910472676,3454.2075676679224,1236.6857016765196,904.5102519056054,1,High Risk (Failure)
79.89533462893925,21541.39742326114,24613.689525101687,0.21997708065401955,34668.86396817417,19115.653280335402,1380.9173733348198,21015.464218266527,39207.51044300056,193.01376801430965,8.350187545042065,20.782489815268335,8301.75298381925,1816.2242438937365,950.3569056968747,0,Low Risk (No Failure)
76.94492870460122,17970.64877639276,24606.821766355784,0.3804444517659612,41680.74036323685,13152.787821065527,2839.119487232436,49611.28781088163,13098.183257573128,133.1284619735019,8.85715531310558,20.691041367256013,5168.853145858955,1281.4867404618758,968.9245122945129,0,Low Risk (No Failure)
116.48806265604838,1245.0933858113556,24956.123104432016,0.40627480055958654,20740.58462469441,28233.11496403023,14610.060560562857,37154.80209410544,38546.22699229396,214.69173222442487,8.759308474615846,20.96462089557859,6945.486741862346,525.4871860212178,826.1969777888955,1,High Risk (Failure)
99.84139777745439,25892.82801307081,6375.560551241047,0.8269768772209473,37107.281314701235,8625.56168175479,1322.2732264885342,34563.19499813676,56133.06513178626,210.2954098381544,10.286698737904587,21.834015184895144,7870.921008041308,551.0168138823756,526.0303468968625,0,Low Risk (No Failure)
164.35588152727559,1679.555705654258,26214.125538070595,0.3624598486145605,57003.5143298288,5334.405985219413,4121.626304546109,60768.805947699744,64790.297284788314,293.4998161449709,8.56839625113133,21.953824879795125,7883.78442300968,680.9612064886901,1075.9300006785847,1,High Risk (Failure)
186.2868557311497,11579.72479292785,33767.138145356155,0.913922199066304,35586.01465363096,19798.297105565078,6721.652142008759,21014.9466220021,51302.1595160249,221.0242236906576,11.21372965880789,23.620494955171143,6644.063584651471,1347.1576754831317,610.1410250322324,0,Low Risk (No Failure)
140.2041031401167,12950.714679343635,12490.431930179751,0.943379718994751,16324.913163517418,7528.051355372599,9442.255276621432,57659.839315921985,17768.850678691266,201.13180741436588,9.520552325573725,24.11174065330919,8885.695709632273,1373.5993073918917,939.3002011825758,0,Low Risk (No Failure)
86.35301654916734,5490.437766986594,30903.294005310003,0.7476446125967731,56430.37933078337,23075.907371482026,5891.172305026363,10969.990570815826,43039.542782396966,111.79928770742049,10.402522409881328,19.321976381990094,3580.355980810746,994.8538364730907,1440.5629598651294,1,High Risk (Failure)
82.9551131228832,26395.794060209242,29409.08071405492,0.49772737647806786,39803.47617935166,15363.738828699054,8129.206924496037,39321.07268732146,39592.92128544714,149.52973111758283,11.331788252347126,21.650055168961213,5977.173095593516,1508.21706216153,507.4370595629405,0,Low Risk (No Failure)
124.43831755949292,20827.286826014002,34070.388905089996,0.3363406385207668,47057.443600319166,22090.61724977875,2473.643663782631,42023.40490122181,35932.44142665157,289.8988750472041,8.391227350190157,20.921165809976323,6940.894971945211,689.4111354938395,600.2700479319082,0,Low Risk (No Failure)
201.26637064299555,28218.76894799496,18363.010258580907,0.6469656840213087,34392.152930309145,7807.368035247443,5027.344694845458,65704.64644229658,21976.717572572954,155.39173337949572,8.599606658808659,23.74795196934416,9157.547100623746,1264.9762440212648,906.0623085459476,0,Low Risk (No Failure)
189.02457875725432,20635.719758725685,22361.019430767272,0.8947018610241837,25047.56071195809,14231.720573888539,10322.555435791546,44838.76409327171,34509.804951281345,149.99664626354712,9.245900456155576,20.295585712492635,4834.649236004379,571.938725682186,703.9173394724482,1,High Risk (Failure)
63.403105736061946,28148.7282049789,10005.14703262504,0.764432862370192,16051.990892794987,18038.57581920454,8749.335358272861,54771.35754785882,66830.83898957988,163.97719363466763,10.811293207320022,20.100172668695503,9333.354593407337,1798.426059564793,874.6505752925574,1,High Risk (Failure)
188.41370873277006,4742.0558577933225,33326.710234213606,0.43331949023289684,27658.26579877102,7710.496135385834,4934.663613383462,49086.413894909405,46151.37860123674,285.8302571359849,8.41323467878938,18.477461118684538,7239.151834342115,1376.5809415241217,881.5167255102494,1,High Risk (Failure)
73.18096729853482,5448.973589283552,17966.812264731267,0.13105574342166748,45716.17524640867,13932.736735201255,6737.546888985869,63982.476942266454,10134.42838442176,170.59349731240042,10.406093866112592,19.751442792545873,9797.629473722933,1249.049402061245,1359.4546297035658,1,High Risk (Failure)
171.34385890700838,18788.653549142964,28917.187250684005,0.35252785126385133,47481.88817447449,27186.972120282087,1509.973975176591,65412.923977208564,42686.08792452949,269.86085652083665,10.109125560159208,22.9080225684731,4221.657334418178,1117.8304773965433,1053.7985473681842,1,High Risk (Failure)
119.27553644662112,24794.717622731165,23443.128594687867,0.8055031112598633,42176.77279733894,16868.724688668277,13373.70129703858,40513.44933438116,35498.05067325123,258.90638531076104,10.219446492144703,18.097779164972263,5665.127336091613,1879.4782009273429,1017.4236528175255,1,High Risk (Failure)
202.8037263927754,20428.651234917324,27901.72035324079,0.7516205508448137,22255.656379559052,23705.862285829862,2222.8352519122586,29105.973845016328,32032.7308829889,286.7055006750468,10.1972199262596,21.34467215569241,5659.981130762358,741.1752241075444,769.8612420074105,1,High Risk (Failure)
191.72371402880484,2182.7653896300253,25179.462182971132,0.9702350624280206,37890.74974594782,22083.644376982913,9319.249753377419,41155.565584826705,17485.591361556806,117.26665281047156,11.21627428805124,23.463341313999475,6630.245010895428,1370.8991151614887,999.5320116888211,0,Low Risk (No Failure)
89.98591105561316,20402.551944191488,8077.536809930624,0.801430382208645,43818.27526138534,16682.380965711247,14529.254871921594,43294.86072567729,69579.0369344863,128.0024112307005,8.176826912658322,18.800488340262813,6474.552054190326,1827.7263327840865,1151.1814330425661,1,High Risk (Failure)
187.72722863468402,5819.364988682727,23712.267364986234,0.4070849728153849,26895.53029770133,13809.568977661633,5865.542825675269,43648.81618962101,62593.630111785664,208.00964830655255,10.933776742943728,21.904189686930412,5097.567352998916,1766.1661166147471,1173.1335896142853,1,High Risk (Failure)
173.44740187558924,6466.495731071273,29982.760053581424,0.026284772337607065,47679.12544375952,23670.679386576772,6683.886353731306,19531.657848607098,13305.39744654188,118.47898263835185,8.014392406702616,22.447318309810807,6915.155866070076,1714.3139854093424,546.3763536567536,1,High Risk (Failure)
182.19076309605128,13158.228230250008,24787.90481176445,0.7304362943536913,52427.45064719336,6488.401638353765,1958.7853022217078,30172.809644310884,35128.179156176324,180.5045577664659,11.366336888505689,20.164430687236273,6836.791902314223,1969.6546930652878,668.8858055474586,0,Low Risk (No Failure)
122.91123216446756,5896.174592924533,29020.784027501933,0.8536957139810395,37381.376409752294,12134.46293931349,14463.603933111583,62853.74820473698,38141.65377079614,260.8001481443532,8.800478557802693,24.73719383806733,8177.777216764881,1549.5209484614754,1159.842798288511,1,High Risk (Failure)
92.78100386411401,19072.00031143343,9472.870360143017,0.6154056774277707,23934.309127255226,17275.84049667004,8496.897013007725,38546.05054015061,53785.173385726535,201.63229397692027,10.952480036481225,19.199860132176774,9193.609888829744,1787.9389511307472,518.4409264225706,1,High Risk (Failure)
197.87054460597523,25115.643851403125,31794.161551383004,0.9381831520445091,27789.476411357857,11788.055638449368,9664.461637721108,15428.933292275971,37500.58104953678,217.77802407147954,10.046035307497283,20.0908939011011,9864.85799426198,700.7641917005665,824.4995234017235,1,High Risk (Failure)
95.53724967531684,15927.523618946616,11970.066377720545,0.9848659403448428,17243.109335150446,28657.423010961036,1629.388668852823,56194.42198069976,29160.82887828744,162.73588015598153,8.28193243205374,20.04475915428609,7200.045554100787,1295.137227315498,1051.4286636609531,1,High Risk (Failure)
173.92224325292491,28908.594177181323,9140.828268136904,0.9971628142794569,58226.652953528064,8331.593072110389,12977.42566976065,56365.1251874975,10102.22968246337,215.5460006276325,10.348749453978126,18.128073661694426,9113.628103858468,1420.5718233301805,1193.8619496459135,1,High Risk (Failure)
174.29226171759962,18487.402037573058,23475.316832637072,0.06767516322559997,44202.387117854974,17930.590377906254,14076.099978131451,20422.015960819637,67527.7057132996,285.4731426154208,10.812298171072758,19.23417174673806,5113.506743077303,1716.874359059501,1383.6174299471531,1,High Risk (Failure)
179.23435883053352,15434.940344599994,33079.222541321724,0.9978978527542169,37585.18613220684,8233.90915530888,13327.45888626092,63858.100644649436,11822.734500649402,160.09774628302318,10.875031047820109,18.143698989471975,4247.900824280811,1883.2816008824882,682.7901779085794,0,Low Risk (No Failure)
194.7093706866894,2125.5754865422614,13251.207768222,0.6561618064448772,21085.591897266357,26964.760609395988,12971.31651453987,66237.59680305334,34728.18574174419,130.38936210943376,8.195274119962036,22.52522499290733,9616.989172187525,1123.3464988665896,874.3830853754791,1,High Risk (Failure)
173.18352000526843,28883.49069787727,16739.98509398578,0.7397949926578588,33757.19267661834,19333.144733767258,10551.791855166373,51498.80773351841,65188.16504313993,222.0249845996213,10.802437929334246,18.187504911160886,4366.997855530456,1920.451247115195,962.7559270145862,0,Low Risk (No Failure)
213.53226309136534,25269.039244571177,29306.175485100066,0.4272471962317044,52778.49250749954,20784.213227515924,10882.597355488566,18570.03254052565,43053.193673363974,277.68542400134055,11.102946505393119,24.617949954403656,6510.862230213826,1781.5959898300164,941.003817746717,1,High Risk (Failure)
195.12790376561125,4738.174967131469,19074.98145702196,0.745751329984277,41487.34135622349,16352.6330808892,12772.925660488434,45008.34200740883,39887.02122236805,226.45101817711418,9.473043722615971,23.08074479564756,6649.164945101017,712.9392824000001,1289.9262477501527,1,High Risk (Failure)
150.33450222935414,24975.10180349218,17212.75868474059,0.4955390128542012,16887.10495194909,25554.283518970362,3043.4224372498197,41684.59279406746,50115.587979685486,136.43739746531034,11.653092772343069,18.845308663505943,3273.784096730184,721.016584815216,1484.2723214881153,0,Low Risk (No Failure)
127.03164642999607,16474.891007967115,9504.609325516256,0.013993410170462628,54530.02108279857,24908.88066982955,3968.4348452909885,26286.49302981363,40784.149163143884,103.66148616402874,11.241851425906825,23.29182085497282,9513.120148022883,1197.3136556089507,563.2809667696794,1,High Risk (Failure)
214.50223604268808,24321.884311635647,15648.258934677253,0.7353676497325268,46768.909880620646,26867.036328849063,2634.7756699681813,62192.1485935087,15684.33809575777,268.6806859666338,9.435705985205857,24.460917193944425,8616.246172711339,924.0404540346545,1340.7805189478531,0,Low Risk (No Failure)
157.8964631555807,20340.89597630174,10311.298835851921,0.2723845792632895,29744.47634647393,6896.344644873019,14319.407057606688,44173.76443989498,16693.559293234168,281.6138088769085,9.425171841324284,19.14142460235095,3592.3286966433125,763.6956865549307,919.1552421706435,1,High Risk (Failure)
133.45984372586895,28363.39129755233,16869.404635901374,0.5414728274130871,28241.26836398075,21303.551540284658,6716.805409072219,47294.15359070487,43263.641718788436,230.7178209782507,8.289569813360709,21.556914156270388,3218.335949875315,1086.8351419870814,545.4727905310966,0,Low Risk (No Failure)
121.41422128719671,7787.675475507475,8167.2692665839,0.9895870741406698,57801.167089880386,8599.624530370216,14413.721223864795,32056.280727142755,12813.60200125754,124.73194443588638,10.24087954824492,20.87046996611298,8437.283207115112,1769.8973895006798,1051.695261053534,1,High Risk (Failure)
208.70015826041373,5182.960612425002,18183.446698787608,0.7614475821271212,27374.60084054635,13197.988784286244,5391.810161551582,54390.0475208075,30248.771078724705,246.05771555207886,11.330695228348805,18.90284326216718,7552.3929871925075,692.8963955804745,1322.3775367373537,1,High Risk (Failure)
78.31802209054482,11216.95764206617,15277.963136543583,0.2006436829571957,59102.8041924278,10802.7240719944,12877.709183388384,43564.3743126049,46305.007599348784,182.10909672847566,8.807085367437303,23.765525562547158,9142.97689310235,752.2097992425446,1078.602620345209,1,High Risk (Failure)
201.82085791362266,17819.066785891144,6101.239484138852,0.4282507002599032,34236.59869436259,13582.053147180266,8083.620441590132,47933.13809482647,62835.58327923006,121.96499660213114,11.184383532207734,24.71813056772803,3271.279338595559,1115.190954918389,1401.4222411006604,0,Low Risk (No Failure)
200.37429654095695,28126.440200366163,16278.797289219912,0.5138573592691225,58754.7919639677,17066.31045782192,2603.868607544674,57397.888404386955,34525.97717893167,199.7085904895152,8.253678271716765,21.409599448166272,4035.805710825339,1225.345329943724,1027.493209895792,1,High Risk (Failure)
156.28907743127155,21864.636708088055,10788.033088783857,0.3965459869736151,34494.838583003024,8118.57695342716,5956.416097666942,19726.366582693656,20864.422180009788,261.6381516567791,11.219237788390892,19.51229126915695,3582.9712202983524,1294.9906184119427,1004.4257404622083,0,Low Risk (No Failure)
153.1517994550582,10437.130139795627,11168.884265968438,0.7719062434000892,23592.15529578445,6355.020221050831,7679.1288289812655,45027.13710822957,39894.61671803157,128.9335330117089,11.526018695761337,23.018995093129934,7200.201599700971,667.2414544639614,1153.787857342159,1,High Risk (Failure)
105.98553543449276,17758.435361786364,27595.99105742688,0.5683611824357746,37048.43293472084,6459.8095106074215,12580.700454173235,12091.143002687815,46247.6932360287,253.28080321931873,11.104680827315677,24.69435943448127,7818.922705538491,970.2782618302974,505.0717376497401,1,High Risk (Failure)
195.5297323174239,13350.901496063772,26356.462556878676,0.2429096718216498,19270.0128857663,7570.9353742338735,2387.090103282103,11412.022874709537,46538.789210542425,162.9264614133777,9.372666606946012,23.866377638300186,7785.3834923336435,1907.8869199566852,1424.1933713001151,1,High Risk (Failure)
218.2144866085861,17690.086292017597,5750.753046915998,0.31517869551588895,56038.90846567914,6285.811100936823,12360.018497551571,20956.08591003192,48006.683697324675,193.5983595068052,8.759887545880524,23.31432782182622,7662.481541947886,1820.3467222196566,1429.658309841567,0,Low Risk (No Failure)
163.7308811923353,18913.142999469135,34136.56369882346,0.059248452399727536,43785.964596544305,11342.595187803638,3859.566141856683,42371.40529157662,59297.73943513974,177.48626026893731,8.219498924874792,22.47022268084151,5249.822077774947,1915.7498821178879,936.333371179699,0,Low Risk (No Failure)
203.55452127253227,21323.44412205047,14036.772441868383,0.07344469100576145,42366.43240724175,29407.822502765994,3685.267082884233,25850.216898611092,20661.681330964144,207.8167532806542,11.647834358714421,18.57100743549082,9832.023146179923,1093.5139317318171,1365.4270106396393,1,High Risk (Failure)
191.94895454802386,14524.863240631908,28010.37589942308,0.45185866513424044,50246.88894553992,15705.040318959322,2327.315798708004,22632.435304224673,24380.96088490214,116.93807160182132,11.004156183740761,22.757203947059462,4087.293065437279,1181.139822819698,1317.8605699463965,1,High Risk (Failure)
204.97392967700168,22939.618921363894,34416.20912094062,0.34207679597107077,28351.351393263874,15094.177261395265,5462.152519136415,38547.59179217211,30378.811611737776,159.87998021917545,8.423541936879293,23.909363429113327,5460.178829068665,1186.7408170707076,882.681766880868,0,Low Risk (No Failure)
127.00693105186582,18510.289286468847,18184.77537709591,0.7893230103611636,28329.68677432675,5678.330621701653,1738.805030198021,53790.57161907947,51483.801070178604,197.36632877718222,9.34968336016916,19.236737190737003,9359.43420338364,1309.2343469369198,839.7208570342018,1,High Risk (Failure)
186.84129817165004,24689.461590919702,22435.560281963404,0.5485389920711888,48526.64403457165,23922.50338571847,5866.5349918403745,50181.351583701224,10601.247003412438,270.1807663989406,9.380494207289594,19.40334089701053,9274.37870915942,910.4811444229322,1278.3031116414177,0,Low Risk (No Failure)
200.9556809023452,14590.897472895173,12966.068168412863,0.5083470960136365,56534.150973036645,21533.304017491773,2945.942377910633,52257.6069215636,62147.76605773474,125.75386317998945,10.492632196621324,22.830354875665137,5337.172729505601,849.4562479750184,1356.3112774862225,0,Low Risk (No Failure)
151.29755946221275,10288.663532405533,16985.194257816926,0.7848913946638502,52419.13289292091,7613.106789107796,5381.537617806753,52507.881324733,68246.58436464329,271.2157196260787,8.907166633779562,20.302624365793275,5995.078551305396,891.392553687003,1370.3008759847548,1,High Risk (Failure)
113.3805433338985,12544.528168850695,17640.194498331453,0.04291227266019415,41625.61887894007,7847.642889407709,14105.058958297623,53549.313440749975,38629.65717445914,298.4790737690532,11.727877121142825,23.51579546686456,8224.458016004999,749.8634130590956,1237.8842771016446,0,Low Risk (No Failure)
173.33807627440558,17813.37181111191,5669.0511469593075,0.9758318897827072,46636.28774420757,29342.023859955163,10220.06915428403,57905.69593804363,46041.02675577286,208.5638656668168,10.252287123637654,18.35002378168076,4080.5758511686317,805.0842678962345,1304.7271715216602,1,High Risk (Failure)
185.98192428037325,10307.12771126377,26475.500465804333,0.6295590559951465,58903.48794144775,5690.409402623241,5061.065166280161,42071.045453782135,33079.04033704748,140.2424784616308,8.832390244132572,18.305488702155742,7028.844583428123,1787.060249316394,1073.798675768875,0,Low Risk (No Failure)
200.14478799998312,3586.990205691951,27194.649030967892,0.426569004711536,35075.76042386339,20515.06693984978,2677.678559040898,56341.025266794604,46162.064508327836,247.81102216229468,11.31475046102618,23.79610575138307,3294.30913304653,1308.4932496324445,1028.7643380456689,0,Low Risk (No Failure)
77.66909814577643,1196.8570466841036,7796.417776780955,0.8771587082700529,41889.4968537249,15299.061423538147,4302.500657015267,52248.768198707134,19347.32259572557,210.85595769673256,10.377738886576873,24.603482239083046,6115.885292605704,1954.8089080115772,836.3090275744362,0,Low Risk (No Failure)
85.58076213863062,23957.562093308825,8955.559689301908,0.672434401962343,29364.177112148885,13664.556344808865,14924.790859080249,64414.73552069463,65189.43012490366,230.6956436868694,8.017675704983995,20.543007075767257,4322.869233544961,1974.3560232264717,737.4300835275864,0,Low Risk (No Failure)
182.64437059546034,3915.3804020632415,13156.64965755574,0.1389459359427484,29388.678055195385,14894.598679785404,5093.76051153629,24757.17484167112,20589.908021291856,273.58429846833167,11.074488047485483,24.109970487313756,7465.749050237562,1945.9199296924269,1003.9626631646731,0,Low Risk (No Failure)
123.22094521784052,17279.3189014908,7828.279336968081,0.7112272814705024,50135.45306909066,25645.422918859113,8671.08565858849,16526.723813956825,18174.673122671473,109.92818432326375,11.0154554320272,23.04220400857784,9193.654002264699,1797.3320065020293,749.0466954662677,1,High Risk (Failure)
175.89421074059857,22720.97150474375,31183.889752383286,0.6521139786237482,44486.467387759476,5212.578543523856,13091.585210482017,67919.04474565852,61225.22973071033,197.64794775973002,11.79815456386991,19.049811703509853,6988.514204262284,1110.4466129625098,1258.804382860636,1,High Risk (Failure)
167.58141492667258,15064.776252747486,15521.069822921821,0.5854700290228892,54334.54783574547,11101.013346056083,5253.944084249183,66817.34180079986,40674.65901804669,222.31810537054582,10.239929662054518,19.61902305852243,4898.471513466845,1178.4267599133236,1024.844682163885,0,Low Risk (No Failure)
169.67102131550425,24239.209689837207,33598.7718909887,0.7152292897762982,27464.11169887204,13962.096828960566,9891.918673621569,33181.33129945185,32401.962938252113,176.95412906438855,10.013966302837394,20.953743563460097,8893.872588477903,772.1856837135493,752.8147869970194,0,Low Risk (No Failure)
161.36475372174317,10458.937369719351,19229.76711650873,0.4493658716251506,45363.37773471397,15032.820693593772,14338.913360738776,61374.699636752994,38095.41684448759,136.604008039333,10.266945020124016,18.824656451410718,6616.767360907532,1230.1291673870576,525.6445822014327,1,High Risk (Failure)
217.76017021165933,11086.848075558333,16827.747064872357,0.4678142961809717,19100.947795520988,25451.539006806466,10393.75125339329,41556.010880368645,48283.30578991862,120.6551258786577,9.381380101559252,20.71159603605021,7428.473822530818,1560.2504261377042,888.161495604128,1,High Risk (Failure)
182.29962595547775,2510.099780416823,33225.90643684092,0.6867166596048486,25223.793660946645,10103.157116579929,11546.90033309548,21983.17102052704,38497.58421953903,103.82965823842922,10.746573270405733,21.344861075249504,6241.0537375603635,1149.8862626229038,779.4680768472565,1,High Risk (Failure)
193.75681928195294,15759.812172239379,26278.16035009439,0.17128263629215135,31167.461209405184,19409.265246388604,1500.2963823231466,57326.25392894525,28905.57135799248,291.24242235958457,8.447095902418772,18.927213961854672,8790.476830331902,1025.1715732923017,1073.3514779903137,1,High Risk (Failure)
71.29099958406877,16466.382887928543,18065.150823597778,0.38133581712228426,56848.360910122945,18589.014742361745,7745.5935374462715,61020.051968337,50755.67935926085,298.7961169069861,10.063869161212294,19.511654542661326,5668.895681150565,1127.2239910991734,764.4169773403404,1,High Risk (Failure)
85.9076810611542,23353.621128265313,29513.818465104345,0.14687451296882692,51928.91462842302,28732.482172673386,5422.295729636554,37691.68648601751,65205.89963885452,160.0099158889593,9.183700646672488,20.886581080711554,4491.249437930668,1269.1529604621696,629.5683601984864,0,Low Risk (No Failure)
176.0594560375772,12250.612890991868,8256.89434108428,0.6642179722788824,37994.6332490963,11523.161642940126,8484.509024875802,23586.437219864896,26758.965725754922,194.23514259112164,11.283207423144752,19.771797678165214,5507.55931477631,1461.5096729593733,658.8752004777878,0,Low Risk (No Failure)
85.7090197215289,25199.289332826804,12358.702809309289,0.03219642208733686,35700.54436863186,16901.066173598505,3468.4068386168146,32986.17339246326,41430.11442317326,260.38804692948145,8.202860861364979,24.461718570876947,7967.142580401125,1428.2668733359537,539.9683543884496,1,High Risk (Failure)
195.75548390500234,1353.215227079702,8732.701307216397,0.9780981193157132,38988.71973036611,26182.480836155017,13092.40600317353,62209.467856893876,43709.16718295428,173.86391597257892,8.631513381075756,23.87074053931446,4072.1121889751257,960.1816784163753,840.4542449198605,0,Low Risk (No Failure)
157.61726752579756,14463.89871040586,16721.07652064328,0.24230568366642136,49542.86052719685,15466.825981787892,14711.14827214676,24786.70837756666,63578.78835570023,258.1034955493409,11.403577399397,20.153019008119998,3168.1532568574016,1975.333569568703,1166.4200030428142,0,Low Risk (No Failure)
161.70325151241812,1145.739597594046,6285.119635669953,0.7265707083277937,28199.737648084123,25883.734487712332,2338.4879779489092,19018.964147379833,68657.22539652641,214.59131181981166,11.446228154326052,24.75304751234014,4945.710232342211,1983.0535659236934,1067.9813545686939,0,Low Risk (No Failure)
82.88017962651622,27419.45529939738,31657.774838698762,0.20773008220177813,44075.86657652425,25148.51007473388,7238.313963481868,13694.231418831683,19650.504095084718,222.24074488152317,8.467262413866434,24.79035172495058,6084.566226502335,1020.9955639137715,1186.578491726218,0,Low Risk (No Failure)
173.39915163887622,25910.435866544383,29443.760049076882,0.32566673227809406,47447.92982862993,23264.70076715299,10371.766252340087,11692.372787984668,19626.218009449458,244.00669311501113,11.410719462294383,20.07388673391438,9650.959522761994,1927.1260968624797,985.7008683216965,1,High Risk (Failure)
140.0965713847532,3985.438196308299,13971.929288265294,0.4010098197729668,39508.757502803615,5031.071966216975,13509.611987645552,59823.33196184572,39002.5547630195,235.30062264528632,9.34928017894073,23.683866688331467,4558.980592588421,758.3809915403842,1443.705043518827,1,High Risk (Failure)
180.4346623292226,1941.6523790607002,14295.193145830348,0.43964232052484653,39080.85901438618,9814.94208153648,1255.8572063369977,40988.43208604229,43106.480153605786,121.02474447687108,10.490910030751559,18.17313354256291,4539.184769938681,977.0722360741656,756.951424421196,1,High Risk (Failure)
119.30274353070254,28645.907859888805,34185.698141310284,0.5971507044831473,45173.111937844544,14273.091503974403,5566.920585832417,23225.386485699553,60538.2751332182,293.82688633528016,10.380942303817367,18.98285295114823,3252.601644224125,1663.0787852174406,614.9333785799548,1,High Risk (Failure)
157.0004700401564,16761.04842890742,14865.358646269688,0.5446880934339766,44321.72613512071,16632.886862127525,3722.281754129004,27033.217727386917,18164.794261981406,182.25718583295202,10.317702875943562,20.696304031082395,9586.00741503479,607.8281482852075,589.747794370283,1,High Risk (Failure)
129.4107871322447,5559.8342877327705,33219.09652418729,0.9490970889284264,25820.165643363576,6838.845162287281,5003.122044745623,25364.724363327427,23930.379118498473,172.7622797978055,8.995446690690354,23.030197824879973,5855.624081808277,974.4887303281663,568.7819204467835,1,High Risk (Failure)
156.56460904017933,18214.705788946016,6168.011218681135,0.7394835856213277,26415.426821780857,17480.97517354189,13924.571387753775,48384.27984270247,50065.326441361365,155.13258648351533,9.136203519849614,20.161105667405483,3389.0739111225857,719.2541330393981,1081.1481259024226,0,Low Risk (No Failure)
205.31655819205167,28288.007847441022,30691.22294644407,0.7680899052191402,33559.32705057414,17659.408114632515,7666.241560677159,67177.42293399258,44325.360364743545,127.37599794929086,9.17916345963986,23.638666973694875,4099.380121926626,1395.2044716494927,1283.3479731354673,0,Low Risk (No Failure)
72.28848773030745,4606.014205829912,31083.773496136626,0.7827348413570278,57640.31879820265,22756.03515902306,2650.6611381511034,42550.295720403636,69131.45522694135,181.00020654292547,11.253074987933285,20.801421276993658,8794.464271006867,1241.193288008648,1009.9424592000832,0,Low Risk (No Failure)
152.58806537158296,16027.966233293106,5131.21946849028,0.7554990686967872,45665.06442539194,19105.78907143929,14368.980469997116,26258.6928375223,55468.29560957949,117.49623775542838,9.229535437744062,19.61599561104138,3964.3853542094134,665.1196702036506,1382.100721806646,1,High Risk (Failure)
112.02933152427953,15642.432086254039,23369.338665211904,0.10014328773835113,38620.06272398178,23894.393478308295,2751.0317150120995,49048.37460177928,34034.425046606324,244.06688187254016,9.40621170982173,21.743811887912116,4789.794135485421,917.3967192449351,1368.1902385879812,1,High Risk (Failure)
195.9960594369059,15223.02380534255,27485.79826423729,0.5132935824594983,41367.175335937805,23713.446567114614,7086.389592773746,59521.13276991858,23984.337585946876,128.5769356160252,11.731549573534139,23.883356157177086,7767.357015951533,1127.2103991042966,612.2783481564916,1,High Risk (Failure)
106.66601259348852,19508.508036177733,12934.786200424354,0.33747469503667304,39186.96687753862,25270.247412061788,2383.8934097325764,43432.35464092294,17970.31940704593,167.41583059869578,11.818662157267983,22.084983523172234,4631.71888599215,1148.1564904737738,994.6528273312765,1,High Risk (Failure)
100.4962462687374,26643.110043939672,17039.76331823672,0.11104638729189831,38102.65809565545,21970.18359095964,10613.792104053202,64129.667022606816,17314.458210710087,172.27233156135546,9.12704131074355,23.82613335760016,7977.641790107759,810.9801321229097,632.113441613847,0,Low Risk (No Failure)
79.01086660289151,28685.324349492996,20719.795023940016,0.547967796793928,34914.17470997821,24676.402396143323,11292.223170871608,27753.62005275323,24119.512722766733,231.61528355118705,10.6546233877156,21.572226135782792,4040.0451998752933,1384.9811339944,1112.0961483863823,1,High Risk (Failure)
79.25817219359777,5012.978313715634,34079.903760549816,0.49852612414639796,38908.71608847873,29860.642222354443,12094.958455792841,45540.18880600441,28399.93525659562,113.37834216032824,9.03940594219369,22.335266266841526,4888.068421828915,1295.2449108565622,844.0802010193329,0,Low Risk (No Failure)
151.18234957941064,22385.511801386543,23923.391993147958,0.18108070230794104,25595.1071498249,13473.179833921693,14131.14515787276,68047.2472430366,39380.07938011032,184.8911989410165,11.042399064830967,18.850727307159193,3046.0517204385715,691.9387299092313,1106.021471547795,1,High Risk (Failure)
89.0919947531361,6698.122041730124,20096.28250254629,0.8673455047021125,30389.361237959325,6352.886695091235,6240.9264708665905,20009.220154960436,19788.106874548313,169.15587381845813,8.417214203540631,20.305834590223267,6180.370359400724,1407.311193996973,1187.2734885761838,1,High Risk (Failure)
176.90408163827937,22038.57688505472,9189.269906287507,0.9504422340901033,36465.27568609781,19410.66262260342,4888.499812544011,25700.47756618903,34609.34843029585,133.91171026135754,9.743511157598476,22.8627655128535,5916.036835086889,1339.502259779059,1411.6530066718828,1,High Risk (Failure)
65.58584842499582,15441.312775034403,25633.191066364445,0.5283989834014866,58748.19350850421,24965.51835575614,13689.704006368776,35989.21572696617,60656.589399350785,138.3089066261236,8.051998102794963,18.51089126546668,5681.834741925344,1843.834857673749,985.5398934982712,0,Low Risk (No Failure)
92.26037120763912,5838.608767961751,10311.24323179719,0.39324646479203773,59313.372321150324,8115.1142404862,1324.972304306502,11849.966367064626,41295.710652713686,120.02458927143104,8.220276056263902,18.1900874982366,4428.143053944576,1363.8616039429733,1081.3276010750644,1,High Risk (Failure)
108.91903319156657,1167.349177496072,12736.100106440259,0.5432933603710752,38347.470413171664,9727.276108972566,8886.192665046481,67881.1103465803,33320.992917108415,102.50850413936678,11.185740710252743,19.42660307294457,5731.563239854084,1438.9752744976856,691.6474961547226,0,Low Risk (No Failure)
149.54378935790626,23103.43782462838,33973.74590320903,0.8081103466143434,42281.972858956724,16854.734023172823,4203.326050987796,10785.06092405261,11723.628019235972,249.9340718483819,10.250583088050888,18.14556705340071,8720.521224819075,1457.0563186559616,537.9606942465289,1,High Risk (Failure)
72.70505354288473,26138.801177784913,27885.66433689115,0.5632647205206205,24453.37305555351,22337.02190893446,8844.860840938822,42131.410645322394,38537.845333757796,177.6352121169624,10.84333996019097,20.4013134086479,8756.88732718088,1327.346806544102,839.8026404036042,1,High Risk (Failure)
152.33873318206503,18701.422132677555,33257.316345544394,0.6853387819213562,30963.792117582452,21478.30509603016,12839.207226087748,51294.15271587352,46418.28567767402,119.33807877839273,11.7929864828213,22.338987252887343,7819.414448198267,687.5551723158916,867.7037919043632,0,Low Risk (No Failure)
206.37830243527176,15556.416748823409,19265.795648785803,0.47363075548460953,57198.18614529399,9200.443457425654,13153.058800696224,58378.29883499161,15306.335652207868,233.5127995243614,10.386105310832173,23.746880377370083,7206.648659346718,1014.1771026607305,924.4850464717135,1,High Risk (Failure)
91.32658156628743,23392.408800859306,23046.455191391186,0.0040252788539707485,15113.479276626902,21118.139658522377,11778.37051167983,21718.884434533873,43209.217072823194,229.903006197152,9.451344727558526,23.28500877541323,3394.0544550729055,974.6144748261597,1109.2790032330995,1,High Risk (Failure)
173.8756489193678,16919.04321048079,13781.733135193155,0.8982385982001474,50285.95163737995,19838.75223760843,1096.776276375343,53940.3731221972,30683.405363140002,201.96841956524872,8.390826524410729,20.88509307625955,8492.794745162142,1116.8793116508227,931.070296160098,1,High Risk (Failure)
77.71529493221051,4929.989333261867,28775.05045584398,0.7239678737735169,18682.076528068574,6463.293481884417,6772.1942017715955,14182.681808114565,53881.95607364894,131.04810577491094,11.732733673907068,22.828336635157097,4901.488200968411,692.3756998036498,532.6418025586672,1,High Risk (Failure)
156.14592090545378,10450.81415841564,13474.965105420213,0.3599079274936733,28415.199902734654,12327.013614785941,9498.299997189297,44892.19355619783,16210.31388512143,273.4546439418385,9.293899919687531,19.653473469531498,8774.91774389114,1956.788936681454,1266.49755924534,0,Low Risk (No Failure)
72.82988108993813,5029.83725221857,24606.954580433063,0.5514044749059006,24659.139694658916,18818.29676473848,6131.846643974578,64837.34646331839,43319.450170771546,143.94517274758016,11.017753598824758,24.201272774091624,9453.683434219962,1584.3461894459158,695.3642333233568,0,Low Risk (No Failure)
148.82140588051016,13133.116793684874,28221.851208383483,0.050107029939968406,16086.334970505013,15814.03102116027,2290.7631553297733,34750.20783400775,47661.71482880717,101.38738503893265,8.261661575893996,24.36993067743754,8503.050471068571,1836.3971733433443,745.9618697737781,0,Low Risk (No Failure)
89.57414367152398,20916.266072317918,30295.974248710554,0.08815464425229913,39035.0327281131,23504.321005917795,5795.283140324382,31890.849621767633,69734.14478003894,103.19651107822982,10.283997060874995,23.49943501529626,4757.596854036457,1546.26199181337,1432.1188647048216,0,Low Risk (No Failure)
93.68111034645487,17989.711550561882,19070.43291658364,0.7799157791054099,54135.89614773838,14198.46529194032,9808.376237290438,21118.34776058864,28326.407942524427,128.65257450477492,8.25581844864374,18.806696007862968,7077.053308299539,1831.993809556199,1492.592467720301,0,Low Risk (No Failure)
164.2272621362983,1569.8929996585862,14331.251151709517,0.5893383779505478,51766.79003741306,29565.443844285823,10206.716314628313,51534.36779999243,52607.69439178461,289.0898187674001,8.891429239730916,24.795982106730733,5254.619665198092,1637.8937246672224,657.7776933488136,1,High Risk (Failure)
97.5607074759954,6093.167501472068,19162.335040400394,0.02443130930768811,38203.798830893036,14351.337363063416,6712.04795461578,18562.869083686368,65176.43935146342,257.852363761457,11.649906089654834,22.925362294342992,3601.9415034424064,1609.7632684494106,704.3410602300034,0,Low Risk (No Failure)
104.30471798044942,26563.088768078404,17796.58562724919,0.7305320210053622,44391.10977517088,23871.888669428117,5822.930236083715,64874.93003775931,21839.95081248424,221.85774174445663,8.163134719824434,19.76788486971581,6417.638883271367,1171.3528182045507,1088.4996597343284,1,High Risk (Failure)
207.40920195407608,28031.88354655021,7811.745981791492,0.7495862900768155,56784.37935423217,12361.561600293047,3793.953365423922,53819.04500289655,40917.80167104193,152.55287882573677,9.640344930957866,20.491058993623817,7964.131225820001,1204.3113405706715,522.7340399227837,0,Low Risk (No Failure)
171.46413182030275,28966.243787043608,27909.410975696595,0.13178666863411026,45870.75311909797,10019.316208860628,7230.735267023733,54754.99568532461,44068.048026359735,262.5235627494378,8.780512724655646,22.407066775009966,5302.660183736771,1114.9849868300662,1027.7130817235695,1,High Risk (Failure)
159.13407278365273,20182.519954385905,16257.233974907445,0.605950173007711,35948.400239136725,16131.750704539038,6404.984607510065,22671.493533433902,21766.039143796967,101.42940765384654,10.501562520501725,22.636963904672488,7290.758112455847,1648.019871176456,1473.8222732912388,1,High Risk (Failure)
135.59893680104216,5074.471284070003,11417.686114991531,0.39174808760521174,54973.731853349134,25281.571241673195,14317.698371524542,31349.655222600635,17682.969089420843,176.96779207570836,11.319382814711256,22.890377991692432,3530.1962884427194,1479.6901240282384,1326.4968959280695,1,High Risk (Failure)
67.87534632652185,16486.804181156815,29830.134067075825,0.18575905620621014,46531.469449592514,28921.718996197218,11338.964708125275,31404.711911338807,50290.07527183532,243.2554960467416,11.442204708505427,20.165915160321465,4464.193348271395,1494.1276701434674,913.9560166459408,0,Low Risk (No Failure)
71.40107644244138,3843.291605217255,8977.465405435376,0.045572521613820305,46592.89161122789,29841.17419796417,2450.7004809496343,10276.81215909524,13504.524285434054,233.37605161811268,9.251402100463315,19.303173866943677,4376.969193844144,709.9212560233352,702.5827500978543,1,High Risk (Failure)
149.05254856034452,18903.273278653945,22034.782741987518,0.8832052018734622,42689.013325234766,21020.907332368697,3080.098707524076,45832.19693512602,27706.01949275497,177.40725759232913,11.228008179354163,19.626428788476534,8444.182673956955,1759.7975651301012,1347.6113996922372,0,Low Risk (No Failure)
80.08796638375634,18379.513423003882,28000.934715004474,0.865370801501058,59174.199432972004,9596.666036198527,12833.256284984272,23950.363065765214,11380.995481271922,186.7127937159262,10.096616980615899,21.506674072671682,9811.678773364132,1440.171500792127,858.6451844383874,0,Low Risk (No Failure)
155.24852254839826,13673.978038043353,12414.3521009088,0.7101716074030013,59713.35638664177,11864.116930607826,12344.023047954746,37369.172408575934,13085.24514905768,103.48509238178,10.430781089090193,23.346848448178832,8357.152851698924,1052.6019266553212,1415.0793031915296,0,Low Risk (No Failure)
89.05823484105642,3308.056273789231,33184.426631446266,0.6587776784877045,28593.545967307356,15231.557067494196,4463.954691298279,18547.64477562401,21942.5967789499,162.76610120890314,11.108467659285754,24.647752054587137,5860.586991187898,1031.8871482442926,1189.2109699192151,1,High Risk (Failure)
84.00778635103748,23992.361312932288,17951.50655079833,0.8035676014003101,41825.912465771784,13593.53957220092,11317.517766182043,63793.432802995645,35934.87531666546,138.85105493250416,11.079680215003616,20.538634041976298,8221.146432292197,927.98549770555,1455.0780955043774,1,High Risk (Failure)
190.26010969458588,2169.4319519075702,13919.01797676918,0.6601879974978584,48256.817437430494,9692.015858024437,12148.951095326605,69135.27045289008,37965.376985752184,138.03763890779015,11.40848383527292,22.31971548073491,8110.452630245512,1931.0115348808235,1254.3351266683458,0,Low Risk (No Failure)
148.832129855914,11538.714027983384,31241.05952980136,0.5108523649637979,25031.348775862825,23172.051407964933,5977.9569694548145,58197.35783887025,62085.728129819356,255.059537524244,9.734357673127871,22.233537313173937,3290.901060488445,992.2779680302548,916.1494874275561,1,High Risk (Failure)
168.4357185922113,23689.478450689316,31437.485849678167,0.11219856447056409,47250.23407273219,6480.584929312415,12105.619181683292,37564.29965116221,51639.01984419683,238.63665369124357,10.582331529637681,20.055076311651234,8729.323243336063,912.7322101858283,1250.5806170008811,0,Low Risk (No Failure)
123.64695054865571,26335.380856406304,20695.340295185022,0.7221475187427966,47123.135233292705,6058.461175295444,4151.772780010103,33111.85999458679,19228.58214897484,263.8254664160413,10.421094487376104,23.214009303943357,5091.374948485163,537.0977499921429,975.8080619107332,0,Low Risk (No Failure)
127.79812058380205,11329.624360380005,12902.108358675334,0.9084462056904016,42784.63709505311,25212.26135477836,3131.266234026284,44304.788382911596,58631.547061881225,131.49772770711013,9.296046463531368,23.27356593639289,5366.117790725863,1883.0362476089279,1374.294699378396,1,High Risk (Failure)
188.8155699265816,15831.655782746031,18562.805671711525,0.48208115823227327,23151.867328723703,28381.72102738579,11271.255352106287,69115.04348174497,49476.05044978416,179.30508025101813,10.814907292403037,22.432650145167447,8244.230514704745,567.9879629482662,1450.7852230739431,0,Low Risk (No Failure)
92.65402578492164,13263.417585536587,29564.986976423534,0.9464580945905495,47070.72672198282,23360.27324176721,13235.798682083696,18639.135607405275,56667.77764681341,299.32454862703423,10.953623621476115,21.787326297741508,6271.919644715603,1709.6845193360587,1330.4004552763838,0,Low Risk (No Failure)
217.18057870537703,1969.2836006296088,28154.16405434704,0.8130869641138196,21799.50716285694,25383.739331510766,9492.81787273811,28055.153319952286,65308.74436939162,185.1165708072025,10.727656268807054,20.409852055781602,8061.154326960705,950.3163299773712,1435.3790625954098,1,High Risk (Failure)
179.59535010140104,10929.458575579929,20756.066006923913,0.8762232931316409,57710.74564123829,16625.165805308403,5584.076976052546,33686.785963792085,66910.99058617442,256.0718483704701,8.704988668600958,18.79581972009443,6885.133133832678,1676.6898500232173,1247.856404942493,1,High Risk (Failure)
61.418125618155024,19574.015501124155,23482.95686448064,0.8839183964342784,44426.46164665882,15844.335041511804,1244.9482227569422,13834.838545183355,21512.138326898486,230.62206765045838,9.65659471784404,23.170330330004965,5335.774805557901,1928.9685614418102,824.3880026871086,1,High Risk (Failure)
120.75078530676271,5772.415694450712,11900.013576451995,0.24626572398078572,20044.956938478885,10317.180637809379,13515.138432363967,61356.00906123873,59857.171836031746,279.67998561416834,9.420399052265843,18.24297099950698,5423.059666765133,1424.3117869553876,997.689855477267,1,High Risk (Failure)
200.65892920994634,8488.577584539507,23541.12574030871,0.9907250552476051,56616.24656362412,27300.582642777226,8665.135069374388,15846.109786092878,14518.429075677117,230.2161167313807,11.965654317809154,22.351102149411837,4481.730390020592,1776.0667062452733,665.1267107661483,1,High Risk (Failure)
179.99644775233133,14411.24769488929,27315.95842664513,0.9599849082376752,58006.480151349235,19704.10275200517,1980.8686438494524,27629.16397428837,43958.12341824066,147.3606445433295,8.532424070122698,20.57127571526531,4028.9823902082553,857.720609891272,1402.5157121201532,0,Low Risk (No Failure)
70.75746881448978,2675.8577135760606,12585.013494954837,0.7772285200016578,34327.12554140297,22378.44931318744,7904.704928748869,29634.506103221167,66265.58020146596,293.9396200226904,10.379918489523497,20.548214167409686,4403.658276392618,956.6499026346048,593.3368781551735,0,Low Risk (No Failure)
110.04447827365665,23486.875923182346,7329.9758533506065,0.21727877876713642,53430.69368426736,12428.46548919918,8054.3623569409965,49151.91437301138,44391.585795678955,103.85868740368073,10.359682871779539,22.167800575366314,7193.9198961659495,1557.0032522626543,599.7497140424628,0,Low Risk (No Failure)
170.28966593643045,25550.075351496682,12496.795846020941,0.6260444704657165,53599.81181861013,8379.09524418538,12229.464902052832,43766.87364916231,48787.59209324914,213.85404452288302,9.789174846919401,22.98376970844361,7071.249963178509,1008.4392767937852,1369.999610109489,0,Low Risk (No Failure)
89.70347278419888,9356.411937544688,27026.550185866065,0.9152779789128344,29079.731066816978,21742.476120718813,3772.9101993775016,45297.82347863558,18713.82541408612,284.30659471904846,9.954151322006764,18.772147550810384,3439.9570771145077,835.3576021823708,1230.2718310265632,0,Low Risk (No Failure)
152.07586846014064,15451.657820532879,24013.371186297518,0.319095339872988,26353.82133413871,10514.201840923566,3970.817064325855,17017.6229107689,21433.176540983146,134.79022791550662,9.635273885509664,18.811007264238928,4190.933730012739,803.9881685114992,1351.6330999216775,1,High Risk (Failure)
161.80661663667968,10328.904692337972,10091.703192436189,0.7437809301448561,56511.44402014409,20474.850132225256,2344.5240093088523,36373.20076457364,12134.375022042386,177.14226094012628,8.420334976769391,22.026058459771246,6341.569638893532,610.1867238826727,857.8074501674009,1,High Risk (Failure)
73.46239439920781,29505.459507086325,10162.995579495866,0.5218274743638449,32610.810241526095,16814.44837218838,7035.954429624838,64813.162692988204,41601.91227475519,258.89361593698015,9.152591599775668,22.74376011020025,9591.698321087933,1626.652628595036,1185.1039326690106,1,High Risk (Failure)
181.62574876642543,22022.397883246445,24559.21141768882,0.06499026033876842,17506.810306204086,13488.052161846366,11636.091242874772,65796.23219484436,55774.0499553574,172.77854606319409,11.653840096107647,19.76514005423434,5289.601579094888,950.7679914840426,792.6844887655261,0,Low Risk (No Failure)
101.37465458156544,28160.40273808218,25665.994532766683,0.10814959801326263,26870.28461017233,9647.69588384885,12321.690186647993,56084.62181501435,22232.398553926905,106.56251058901725,9.567291980691866,21.51597332224218,4391.685025730653,1328.8020984280774,949.8991030270761,0,Low Risk (No Failure)
123.65386008034511,5590.301425713844,14017.733683427552,0.4286455693151827,19203.34567920972,26800.468898015864,3081.544665514444,64819.937521121,53392.4797301969,283.4763520909531,10.478771856555671,23.970944245224835,5995.55173580621,1517.715772268593,1368.7232692164237,1,High Risk (Failure)
83.1831795345957,27355.968433789007,13406.492209717131,0.954378600220893,25498.602940123114,26101.174134196608,12745.049029877326,52951.027857748566,23375.589443232937,282.09527264483467,10.049688798027455,20.50144397418151,5573.341959234631,1366.3396033780218,1366.680028971412,1,High Risk (Failure)
139.72090916215257,15440.509184885652,7802.956005274978,0.8755763666677143,48603.74471319064,16856.037794257623,9673.634761701811,47202.40220337305,32543.03181903636,136.57983101864028,11.249488054882642,19.306581959080642,9990.401969979812,885.9419199319752,692.9910704002514,1,High Risk (Failure)
93.44949979309536,26477.39172700752,22969.702718930796,0.6773215879614743,16538.841850687484,14024.53822584648,2529.939861989058,45695.1850128533,57027.64560062389,183.91310499178036,10.390489101772111,23.47672073261967,8075.765808867466,1070.717287333131,997.4731006455544,0,Low Risk (No Failure)
70.90985916247404,11592.081846845784,31875.040300704863,0.09298027644479123,43341.049847486924,20382.63572821898,6428.616342095694,21236.38530123893,61033.7977939625,182.5274511091655,8.949292983393425,24.49019563393152,7264.371868276845,783.6044043188901,541.1812761587518,0,Low Risk (No Failure)
132.35184452534963,23096.096896549814,27735.743662163004,0.7285652116332708,20498.85428231571,15648.144483951924,1684.6998802692685,11785.396385062902,11566.247594027622,135.5844841530878,8.858985941684473,23.532042088572464,6024.932894520551,1579.6045684940466,863.1247107734441,1,High Risk (Failure)
177.03781755249852,13844.508843216943,18985.706904666018,0.4085228957638626,45734.189654713955,22934.272334267247,1273.4948578531507,62185.37792352243,34128.06721316527,168.09859701380424,8.556688403088744,20.863892547422722,7856.443701915162,923.4543304977065,571.5418500186477,0,Low Risk (No Failure)
159.63032655196758,13371.165130577408,8661.61301243948,0.8111085143428247,39768.42494303186,13882.037564794118,5235.03661936461,33871.84781189171,41219.96160932889,229.52467740340532,11.943342161674405,21.28948195449766,5124.878825363383,1040.475470732751,1152.3037686520656,0,Low Risk (No Failure)
199.87560394962813,16271.253335103891,25390.253934219043,0.5954499314692966,43262.453901769135,5610.204464815206,12960.043182455564,47923.33553699185,16554.88498936378,198.34539272087602,9.436893853566426,24.176951809049342,3462.5047897758527,501.10805828603685,1392.408064854074,1,High Risk (Failure)
118.50891972181941,18508.899171290777,24992.79842446739,0.410902058988588,45218.750451633045,27679.63304335439,7456.413231430498,43553.62700148398,48611.98351224258,201.88822933495612,10.10680668299618,18.82923450363331,8849.843483487582,1226.1405424672794,1242.9348496117595,1,High Risk (Failure)
89.10850087924338,7757.549967508208,27605.11703321924,0.9253280538641637,55350.86952776419,25071.93844724587,5427.015433992988,18479.33436629218,60862.52309344717,103.61754137709731,8.593572202632354,20.9298266801021,6252.412532684988,1453.8868520981193,744.4105000008525,1,High Risk (Failure)
166.64351627088558,15649.756530506129,18884.919715964235,0.3799051886182262,16810.838628827114,6689.263403799892,6841.327202126894,45446.880438166365,60626.49086315188,221.1670793828935,8.00717934184022,24.61706890745888,6124.547355308809,557.6619332866844,942.8507338129081,0,Low Risk (No Failure)
198.68325672096003,2604.639227737037,15027.39122471394,0.9425777318928872,35271.0297467141,9138.921052459824,13335.881795273663,31980.186544717897,29051.10775780297,178.04244821244265,11.291494466063467,18.153999091560507,4311.016470241922,1787.4357174426536,599.0305119569431,1,High Risk (Failure)
138.1185819234845,9270.411284291387,12460.754284134055,0.5283446934365542,30985.928745465983,26968.96199499998,13775.176533547497,18015.85359376093,30352.80090953198,131.795249514176,10.85273012657668,18.806115209994218,4387.803352111792,1609.8687243342217,1273.1043679123186,1,High Risk (Failure)
188.23132419567258,16478.03699647189,18594.08994435499,0.6837348778214267,54279.216515531494,28913.16873943165,1349.3263825480444,56734.60376233458,25491.016594425666,224.92511870766197,8.319677134669925,19.033244822135252,7691.4487571485915,1878.1992444823295,808.1450600773096,0,Low Risk (No Failure)
190.37201819944195,24455.18389053337,7037.786126684788,0.4151976391419092,51872.90301174936,21592.645494894285,7901.77610976338,17139.15063998085,43908.616395448174,253.7613391178117,8.545799015981745,19.421330583298115,9296.913119618635,859.1735780715611,806.015532210673,1,High Risk (Failure)
192.21452975202988,23090.538487615962,33352.37593423496,0.7863639366024132,34808.30162776211,6243.844785341081,8071.386864492405,30082.2691762469,48962.04625132642,165.1491060350636,8.173782704988138,20.107036856423438,4831.018155979113,848.6691080934844,907.4695997589058,0,Low Risk (No Failure)
119.92846192321942,19846.053729374675,25482.315188811233,0.7536218805843591,15258.89680454856,15767.398421131671,10572.650846605793,43270.77638007924,34113.41399432745,183.3979160167509,9.7668582884803,21.662857393419195,5587.542159909917,790.4232951267604,606.0042827407501,1,High Risk (Failure)
215.11526932405903,21654.385950137603,10645.99945039587,0.9148151491912277,33217.446029335144,22580.846402808063,6959.593347658073,10729.68724037825,34567.60985111118,203.6852815622686,10.201591859179612,18.102539781355464,7662.639223963369,885.7417945195032,1152.3121069451117,1,High Risk (Failure)
66.66766409638149,14554.232727989838,19107.469569799287,0.33596364855365213,55668.7018834526,8681.361547965986,3487.83309987402,42886.121129331965,66164.97607090315,277.95265198278094,8.591217816043937,21.26180676746375,5359.769676074333,1084.3976241166438,1014.3614727662008,1,High Risk (Failure)
134.23707170670198,22234.89950867634,7542.784198259656,0.934896448517574,35359.20989100175,27237.308642852207,2238.8300894585445,69727.91431063553,52307.93293949732,210.37043860751245,9.904603293738907,22.847467436251236,9053.79157326782,949.7225307608128,951.7324994866108,0,Low Risk (No Failure)
184.86017977135685,1155.1206721324625,32112.37311826825,0.18669429746141208,39454.33565663667,15093.519912537164,1944.9474341892173,22528.36959573222,38094.36664770203,285.44415876781966,11.765569398016641,18.59153905368345,6347.712526624608,1765.8671013023943,1321.0111007883966,1,High Risk (Failure)
62.80837813866063,16583.9965228718,18709.41078884015,0.8799856915608364,23820.839038718615,18684.689467356133,3880.489571027134,39672.35345283373,13438.455551707557,296.67566041711177,10.211609108352441,23.466637602772693,8166.131772091028,1006.2200035443851,1115.8610572350285,1,High Risk (Failure)
159.67465337015724,7967.105535464813,27753.672419273797,0.8575531270999133,30479.233922749365,23945.599850761366,5201.748993299645,52599.90763421085,27658.76071858823,223.83640871353583,8.518155391642308,22.22621210924668,4269.2930621128,1344.661876451783,1353.744187423979,1,High Risk (Failure)
148.0850688953961,19089.393528874734,16825.113637505186,0.6811540723304462,36966.53442872695,19379.233543939263,12876.741099503144,55135.13536972425,24238.945537054715,250.9681202473577,8.732920064285553,21.527985670145096,3311.5056943152217,1126.6396145784554,556.8946633997348,0,Low Risk (No Failure)
132.8352238530882,29268.042358749663,18149.983268430617,0.5993003890163725,54459.286957222015,21509.909092484566,10477.51678475493,60045.507778378014,27790.479417522405,103.93654123886029,9.827904495557302,18.389674524595517,6265.409942680133,1076.0597881005665,826.7935854465647,1,High Risk (Failure)
167.1179128317104,22126.324081575767,28573.46451181263,0.33585431586083214,29199.26718284346,17517.200855019088,1403.2999289846794,42723.0707830216,21164.99989845631,191.33609120915133,9.4442930685674,19.965342567193304,5662.487852421618,944.3899472220583,970.131056762586,1,High Risk (Failure)
125.24448550498603,12546.335312164289,10122.636529885891,0.20292588570198822,27423.236056463847,11697.390672729414,12028.065203889519,19392.216789890677,50946.51547759871,225.94123033256386,8.098503643336164,23.31448183379368,7869.576397913857,1883.5807297975666,1443.9561664541725,0,Low Risk (No Failure)
135.80957254367146,5092.657430680334,14816.000661167875,0.5989666363238755,22017.08180922352,11709.146370956158,10491.682666843708,17642.60342912005,37947.99870987829,175.03455538565157,9.730499633096581,20.36089325881344,7564.489425098985,1385.910094134319,540.0230382144246,1,High Risk (Failure)
72.43754191439757,26781.01771362531,22703.492670334126,0.026454505480424162,16138.11340453349,11889.561603943963,7192.189844813835,36805.816927856555,68486.35028325734,107.81944398625694,8.43819294800746,23.538710738320944,7113.665809137214,1829.8662391691992,871.5266890447765,1,High Risk (Failure)
171.1971017802468,11150.199185722184,9496.828859844743,0.3815276946603112,37432.06021654864,6725.1209800100505,8674.169019526504,55150.919407561276,21859.548361366302,286.31309042292537,10.632355201163948,22.73458592165786,9932.695505251992,1971.4619173735548,921.2883628292117,1,High Risk (Failure)
210.634369404244,15939.843823211075,5064.227580364257,0.8431099565764026,21026.73719245447,23463.081164284842,6277.841752061507,39750.62327131344,67771.37476553804,280.6655843237907,10.006563306614831,23.91479613495633,7035.893156132583,1334.3052284317455,958.8177206578854,1,High Risk (Failure)
126.3398597963238,7857.772454922142,30659.43393088815,0.5892009067638531,57323.88225068843,24161.381149942466,4868.750106148947,46252.5145476193,20405.771201240528,167.70538093053517,10.987261616601542,22.32144502563264,9288.0434453563,1215.1285670301427,847.245262795722,1,High Risk (Failure)
156.08269766938454,5251.640710440091,10145.68081361561,0.9482445357224686,58889.95935479605,23672.45838104584,8006.016311269701,12480.615151239914,50576.60714992408,266.48475638705133,11.871727313522706,18.27567486291252,4642.02733893999,1536.4774397473836,725.3659307523257,1,High Risk (Failure)
154.8721362295884,26805.25542856101,10980.503868340587,0.94894013128426,56548.017070632886,6849.601252292976,10705.598221753024,49182.92450561345,12470.58386522834,162.16410299119926,10.80873125929867,24.56328526544712,4975.267762022549,883.6506897517363,860.7149365799431,1,High Risk (Failure)
129.41626387807568,5681.98289495471,26143.8750839656,0.0033788468084122725,17834.005859398487,25958.64185740262,13925.875757924496,13009.39244295173,53456.28763960022,213.33981186827256,10.227827965687544,22.20710406871183,4509.622915314996,1274.5291519924328,1476.3857052217986,1,High Risk (Failure)
204.11229824180137,16676.0275862788,8316.24093250206,0.057997572472708425,48152.47396318807,8010.272742911391,5147.314260257701,37257.81466056613,32600.357206008794,128.59628468351855,10.606865750327866,24.813725977592195,3082.0051630157336,543.4238502029501,557.2036140869355,1,High Risk (Failure)
142.38933598612152,26267.032655513558,17807.062619685115,0.36806970521729876,33995.47006725818,19947.921460031113,3988.385222671009,31222.23748584868,38265.78425743381,284.7817261514873,8.316273601815437,21.32650961084537,9806.49463695653,1958.5004207181273,1315.112193984326,0,Low Risk (No Failure)
88.98389592554885,20410.14707454155,32187.627102136044,0.6337097434231109,39491.00794426266,14534.09937953916,8867.465175225443,40063.1200141278,58267.23539971736,268.4808856049905,10.333386619729747,19.485436023449942,8710.820619326983,1334.752905208171,681.6338218415285,1,High Risk (Failure)
206.9482291432654,2949.978387509062,18650.33096920872,0.9664193168045985,43183.60495830314,13852.611165945636,11144.726213420581,59496.80247227137,56062.986189213516,286.6215241763996,10.261412289342077,23.233469898951746,8528.629902820216,947.8138983413896,873.5119304900511,1,High Risk (Failure)
147.4713091315408,8386.894513268919,22046.250223624724,0.5948303773589867,23865.71458267587,27858.97824630133,9494.241826112042,14608.419765874944,59264.04632867864,134.70393969905103,9.789151834056797,24.244561327253102,8042.868648930068,1365.4190977077778,1044.6872124764616,0,Low Risk (No Failure)
214.14310947416806,16970.025796149042,17006.572866164337,0.2854577202871508,48505.52378446424,15517.651759829965,2532.8559178597934,57812.125973494236,32918.04597868028,106.76176596843095,10.129252564215781,24.12313536738175,6255.886333914116,938.8016840874944,1259.6756923982175,1,High Risk (Failure)
101.03408976268256,4951.266387667358,16245.568183904137,0.1603591056039002,25569.316548937517,19065.51253035276,1363.136987481643,23488.72544668887,57257.16098056816,181.29296528357764,8.359215206296172,19.85014490395397,4191.053128897009,1083.5441528217189,889.5867141104544,0,Low Risk (No Failure)
112.51084057748984,26592.358046975958,21474.670723707175,0.07880669804540741,42915.24888278998,6122.5069305043135,9165.069745327428,42947.85972200978,33205.0618005509,229.6163329373856,11.370240217491691,20.17719438330757,6083.13380061224,790.0954463769589,908.5159173005775,1,High Risk (Failure)
219.51190678586715,18017.792907133346,6248.09700065964,0.3379960313119229,36585.023228703816,7511.590216492646,13128.109740876287,53134.99160390235,37398.684278691886,252.7254291196137,8.931553441533795,20.393267230681595,8731.269748687451,755.5183750982973,1274.1734934903923,0,Low Risk (No Failure)
99.80668619826832,1695.2879739194186,5667.5105577899285,0.26054501410973785,59975.27353463836,11294.39830567925,2169.641021026865,13776.157264146488,28785.404362616675,170.95710254369314,8.648752023595868,22.74801571525215,6694.434459453412,1136.6080755595058,714.8303734974627,0,Low Risk (No Failure)
66.7121957490618,6720.037318843487,15191.43631508253,0.5873546311379894,38545.99076890756,8169.871108416916,11964.987381129446,65834.49337454696,36390.38385588333,227.93955598566077,9.068558387108784,19.979103086681384,7428.115294102388,1956.815051807217,750.4362911641988,1,High Risk (Failure)
219.54917662447207,8512.019178997067,11403.43643978127,0.18752804794656086,27586.27560106395,25771.13200148553,1117.7180324705303,31805.609682254526,41397.565336594096,175.23179122187236,9.565194250829656,20.07075845248421,8030.084351717672,1697.1089387919833,944.752816050712,0,Low Risk (No Failure)
72.35000483623487,14356.414219305416,5948.450338137263,0.7690614733811709,34765.32647261348,6828.490525343965,12415.032706704029,53003.39700310725,18933.532080243654,238.5552423413641,9.516537445927977,22.272360476910322,8986.639522452337,1739.968383820192,1034.6029802897474,0,Low Risk (No Failure)
139.55976094278168,17869.924296730824,32738.684535275857,0.7115129003118185,37179.56307948377,20015.324422762955,5544.637186560512,13378.075126214191,67601.94732814471,195.01361001719326,9.616205191937928,19.55024425696185,5577.069540176342,835.3631091063744,1103.9162954886297,1,High Risk (Failure)
192.95186736881095,15264.402824363888,18938.812126056335,0.6596659316907483,17696.86949035013,16338.94074289343,12588.002526994043,48501.723227167226,56387.25951405494,165.86257100159293,10.09576186717261,22.261767808225525,5260.409087059785,692.5919947101644,674.6161312031655,0,Low Risk (No Failure)
182.32444714475483,25153.914251729653,5496.183478696298,0.27402469403848584,19929.14722398171,8557.47491896732,2552.936547488859,38480.81744950473,19068.115564972093,218.0756129147514,11.095685759284361,18.220659650676428,6903.8358538214125,1083.439103885399,1167.101126358949,1,High Risk (Failure)
127.08346578656352,22993.706517991894,25047.110509320315,0.08022429180102997,35787.66216561429,27242.75683689622,3792.1962206376174,62992.163061929925,69510.11354555452,242.3550941203556,9.514346928049832,24.3724359047361,8534.456095242187,1695.3243260785193,1455.9828049176663,0,Low Risk (No Failure)
194.41729255027198,9319.139374501025,33005.72938149892,0.13691579247689056,59066.90691149482,20566.78960321634,13169.869655462648,27850.794763097565,23222.510948552735,220.17206576749695,11.310995037873868,21.937289495469596,8374.43162549036,1502.9192918872243,656.972162221055,0,Low Risk (No Failure)
96.69852432602758,14117.380851394584,17340.387466445012,0.07096463328553548,36292.796610960926,21732.335623669722,10687.23330256568,61426.90900150637,11729.700109319409,273.13771405453053,9.330174854820836,19.16152720564404,9316.59225333054,1136.7259556136946,1248.9543885169937,0,Low Risk (No Failure)
209.23655733664214,26163.360839657933,14809.328697282179,0.8939783918831082,59749.35806401217,20188.17155438346,3966.4621799922966,45298.791384361844,32591.101062980273,276.99663077581425,10.826905370883864,21.082872965354323,7300.583131910469,1543.9210011506868,627.5582925303062,1,High Risk (Failure)
78.61735762631935,14638.590458055669,22502.46305780372,0.057388474607090734,21251.99532482045,13381.197523280629,14787.405279306655,26153.36892390235,11362.93747886692,200.0555226210091,10.5642677473069,20.824618912743045,6825.295357272537,921.4403145738738,1384.0010381809652,0,Low Risk (No Failure)
70.95339509337249,9348.505596710493,6994.723855242995,0.8959091387314908,55464.99683886273,6254.354301648228,11824.975541541105,53593.07061233686,61873.948975592524,188.02515499076935,10.666697011375332,23.76658801645091,9251.126079674508,779.987767145378,1385.1875803240573,0,Low Risk (No Failure)
163.75432910403794,24743.401723184907,16958.86884932225,0.4926642258305287,23526.582904298273,8082.605139701094,5798.054506376584,37142.8414319568,17626.72316625429,148.24539089066698,9.99089381102247,24.79326764238359,4984.025812337661,1406.7167271980043,1169.8087251048864,0,Low Risk (No Failure)
121.84648109168447,17514.98925596116,9027.152572812307,0.054386966001572334,48641.01537641888,11599.839613512733,5946.807549076335,46748.21688737256,45875.4724140275,118.58349031662847,8.580398802019936,20.405043410154043,9333.267568958978,1456.744542577648,1017.9278357107884,1,High Risk (Failure)
69.2551119115457,1022.8958217033448,23854.862902671863,0.18037976887507134,35828.01409460898,25523.678936374203,9074.375778414505,37458.53433138591,14537.50680077051,148.85781392783272,8.206135494592067,19.69942923712787,6390.828856402544,1172.3136011962347,1247.5180365504484,1,High Risk (Failure)
108.46651661331082,5051.896442389669,32785.6676431835,0.9308370315599105,52191.77734414821,6707.149593160504,6755.485711999611,63492.72699984032,21383.355083793045,299.3177910237948,11.036489735402709,23.412166951316127,3858.57181968836,1730.9247946416929,1191.9548409757176,1,High Risk (Failure)
208.3398050983119,19567.276533616012,11852.553704958074,0.9308730929145203,47274.24659524973,19346.730422680143,4247.482575915222,38500.54015433778,43392.90772334078,110.14012234180387,9.456842202831247,21.414301411328857,7621.7670927281615,972.8913694685424,751.1335205846315,0,Low Risk (No Failure)
74.9879628524948,5872.581513587678,33950.94868729757,0.9927246195936279,42982.08388375986,12687.569361585753,11695.665185033376,68330.66124959331,52391.37778962504,212.2582923191572,11.36155039968382,19.7003377080531,3693.5680998056805,1691.8995615834267,549.1828484394817,1,High Risk (Failure)
123.24149046898525,27595.856649982034,28473.249056005803,0.023063386997226987,31710.00112923058,26905.076026037044,4015.227265274352,64126.35187614763,42638.07607741005,220.94809127907496,8.32502671904155,23.08780692795433,7056.35206128647,1032.9751579693461,762.2844373125354,0,Low Risk (No Failure)
102.24991755099501,14147.747562520562,16170.134551561432,0.1051882848789717,58732.021511788254,10764.376378139066,14064.965238381072,54283.05363613125,41560.03258293517,155.07551436231458,9.596663536880687,21.80139359509081,8073.118900708538,852.2224864078778,1290.8746030842685,0,Low Risk (No Failure)
191.07021750828642,17983.975727435176,29367.186158262415,0.1555400915004873,40598.735881252986,5583.467070766178,2336.1594347546798,41663.24808216718,49678.65656791455,103.92101948114936,8.002512771570538,20.179753625208658,9870.578473809132,1140.7448698181374,1311.6124831636912,1,High Risk (Failure)
167.36207688526557,21480.742457421675,24461.65640464717,0.17049752178789424,31542.71849030997,28013.07444015213,9373.348766674546,68281.83148807153,62554.11558679279,114.70746665139819,9.31621846045336,24.271499815493762,3284.025215519503,1007.87146387654,1216.628025352803,0,Low Risk (No Failure)
178.38465932270884,28085.6351368659,7050.551445516987,0.0982088890488636,44603.85775222364,5282.717167002514,4099.978950042417,31020.23398408796,20799.780853952143,111.22159100603746,10.38614714967734,23.665457058336727,5237.535105714686,1514.408948438028,787.0610387019037,1,High Risk (Failure)
180.54846756111505,12734.958507807954,12656.936507556962,0.9483637310214803,56230.52249909468,14493.180289833641,14402.402123711105,27689.41696128723,41604.562823297,228.28749338720374,11.81125123684781,22.721770060352302,5582.610864930097,1349.9354779708874,747.0971229783779,1,High Risk (Failure)
93.83168111944714,10475.427826490373,19255.931583708483,0.8973389655687687,17322.114439904108,16047.312299166262,10420.491354020276,49811.15266801781,27725.57841065326,200.4512308929521,10.594598234395264,18.14370032587251,6794.680927869278,1223.565404030922,714.1652846181264,1,High Risk (Failure)
115.81892264687924,20627.781265271362,34175.434464792284,0.00030973191500593966,19352.39250980083,14330.618580541195,8382.636866233435,17769.17173402373,24689.940287692556,113.67649518236675,10.280977165045634,21.32585326093646,5310.738665904598,1332.3709368212392,1045.8266359108075,1,High Risk (Failure)
136.29495493085074,7937.121552992344,34590.673865172226,0.5411029164541511,50362.27457506191,27345.175634687355,12100.497954062053,47661.186066766866,10914.77894682131,187.35378622338294,9.248818973036515,22.04386934712173,4215.006148532069,1951.0141651566496,1433.0008359807964,1,High Risk (Failure)
101.39386274487055,24233.97359556442,26377.338297417824,0.37962646641271136,32808.77723786945,7568.88605801473,8813.288565140092,10379.325372559008,39996.64515838554,287.85710913286596,11.82201192974384,24.170617583232897,4332.886375298046,1745.8991710329763,559.8380747013596,0,Low Risk (No Failure)
149.10055090753534,5427.086771682729,33868.341804573894,0.3149095475267163,50694.699120593505,14205.754729020797,9150.33989574451,40333.8024186815,24261.36910149605,238.99214897660283,8.39867888858629,21.649477997384132,7396.76080597932,746.0883660261358,1403.4163375468997,0,Low Risk (No Failure)
80.81379842090112,3103.147191679961,33234.21005437521,0.7646496115903573,18906.205817158585,11220.788891647077,13197.759319485906,23619.298216527885,25186.091465566446,264.78685824363356,9.76106537164712,24.047522411564096,7960.38239268835,890.7486654012353,1211.5877141878027,1,High Risk (Failure)
99.74020165916804,5979.589680236957,33764.02862776544,0.7241924466541549,46979.58196800855,22051.920451278573,2249.177986195481,30252.276737882432,67123.13466939525,249.07659126219872,9.623855315448155,21.35555356805296,4954.146859715317,974.3411481688846,888.6087250628083,0,Low Risk (No Failure)
91.37563403814286,25431.45909823168,5342.980300166121,0.547111319738281,32425.331083033616,6994.244943754848,14916.26168540145,15112.265853486177,49197.54170033802,270.5976256103077,9.474492105534372,18.801339643030317,3634.4910277451245,1837.293450215493,1219.4664422438345,1,High Risk (Failure)
114.27850578781381,21291.67923747578,16725.006478016654,0.052978793302596916,44223.021031987206,18017.252188601276,10399.783395409328,42343.713421940876,49851.46485290845,136.33281484028942,11.593372508423705,23.87759554599164,5729.946539274662,522.130191370339,761.9067653565928,0,Low Risk (No Failure)
171.40620414050235,7834.793502700663,33355.6928338102,0.5480330722215929,23597.3618906769,25550.813671059124,6987.078027219116,51311.7431841374,55211.08045532655,188.1617071959244,10.331914729176328,22.194143379610946,7609.345493757444,996.4025100107942,613.1803779317687,1,High Risk (Failure)
125.08876815227578,14442.887338508734,13861.31011521848,0.761007290185914,42817.58473498311,19371.332823352448,8220.673929434353,33791.75816987405,29941.962466216082,169.5102888351218,8.067364060783738,19.57253916584678,9398.344891118995,1428.8691338806834,1323.7160226403485,0,Low Risk (No Failure)
85.72928822679978,6239.068698027792,23880.648278868153,0.08851905256306758,23646.42819134495,20958.839603815686,10265.017068508923,35540.64885943428,34910.74815389617,293.23821844017584,10.396131411284678,19.59388084235772,5628.603480065072,961.2599472663833,835.6740692451857,1,High Risk (Failure)
205.15120491293277,15105.746030549168,12001.8635518522,0.7171194855322923,23324.986387589073,14684.06459553378,2326.184795009084,20235.81159752482,62183.84990436472,205.3686071894858,9.424243458879545,18.123979750070042,8087.919021318889,1497.805552272686,743.336885204114,1,High Risk (Failure)
166.91404776880262,4788.397065163432,21410.844392733434,0.43266010769071683,46194.44000918139,22144.061044001406,12354.601185585176,23703.10220361172,38090.788976191645,273.7664366000752,11.466300770360762,19.078818869489197,8439.073697076492,1625.2885600839452,1477.2315315338099,1,High Risk (Failure)
114.69954656618978,7093.415502266221,32164.06076412247,0.9095689433445876,52795.67795504545,20000.412702199523,9329.39268781571,37200.33992297781,26488.352045318527,179.41677171603857,11.790344745715315,23.348882275683014,4865.228521762181,1707.7650793423995,960.4456717345033,1,High Risk (Failure)
152.54190672102544,8897.1465182514,28909.629642769563,0.05278335051569116,55296.40225885772,10515.597707756357,12415.290174158834,28343.499044385502,34776.07358001785,162.46615142206514,11.792392906740714,20.57215310978576,6642.334770189793,603.1487260825015,1219.1390674835222,1,High Risk (Failure)
85.37681684689178,22557.23397153036,33291.4643191286,0.3021910269280519,40313.527962206106,24056.675563436176,1722.5705629898907,23496.852441385687,41497.930195290974,195.71907147833056,10.911177481932107,24.60349389011882,8804.981842425128,1601.3019316527364,1465.0983273954685,1,High Risk (Failure)
161.0092084947182,3298.2385777679356,16142.507359796964,0.17722238330646967,39756.28536713925,9289.373594078399,3409.29743502621,25102.996955484083,18756.29756099025,116.70952407043033,10.963654558272946,24.051599779363514,7208.7883149135605,1953.6214864530355,1226.335108649357,1,High Risk (Failure)
104.18712925134392,19119.066562843032,31865.603611424784,0.4751471801568825,59933.63008453167,22388.28121279581,6222.875367262907,17971.15072240194,48985.35698999484,224.66271345727756,10.359187531431996,22.418653887850866,5075.764756885275,1658.0983243312965,1025.6725018621323,1,High Risk (Failure)
143.74421934752132,6625.824730478519,30697.53332682373,0.6986153060111209,24517.79645898131,29001.121029207225,12239.482874780368,25383.024851960028,15754.562954019166,113.52796149578153,9.054814742245556,18.8493376529651,7107.652460027934,686.9159456748486,721.0332016371954,0,Low Risk (No Failure)
101.13003075027339,3663.659779646829,12970.353965085116,0.5933436571884717,39744.76017694885,9389.59282123117,12223.642023962566,16544.60167600498,58175.0735776133,110.2387268420651,11.348137778935527,18.53121921089554,4372.452425443978,1033.6318960715193,1304.3252556429557,0,Low Risk (No Failure)
81.20394763869575,21129.81796531087,33428.075048231665,0.26887484934151484,23106.166220949282,21454.36898784476,1099.7850396006966,24110.182064198852,20910.31298489194,135.430133160274,11.685373087274078,24.7186878592326,5332.956706772065,1770.018071830503,1333.0225187976916,1,High Risk (Failure)
167.2694934075068,22864.192848801296,23315.185221254575,0.5097504116137672,51288.01620590984,6786.007515220597,3156.065876749574,46618.547108090526,66468.1625765159,204.51848262597775,11.706946107046992,18.983142497547306,3561.5430472147264,816.5154036168997,850.137614413316,0,Low Risk (No Failure)
163.0246805665809,7242.802327789194,29537.438781399942,0.5109967919343424,28319.244617229364,25276.994843391836,11882.900880376143,14399.73472276994,57804.06112270286,252.39011870149625,11.152850839299049,23.775356285997255,8699.518191148562,1468.663962226125,640.7614025459004,1,High Risk (Failure)
88.24448512088132,22517.866342658996,14435.527166273157,0.9798031631041544,15449.719868635686,21923.948439137814,3619.235236144902,67339.73740116923,65353.38342763412,196.78999270517056,9.843884498898866,23.69115636843864,8735.28922684116,1162.7147124761134,1178.9851559537628,1,High Risk (Failure)
67.29362527178701,22082.416269028647,23922.64994122303,0.6103077815400959,19668.757961424024,25149.961363917675,7378.632831790227,66399.89905782626,41879.0344168009,235.37453333369146,9.427467997069206,21.435771711656763,5331.858007385687,999.293904595905,546.9179509555,0,Low Risk (No Failure)
154.9154512171815,14729.613074227414,34058.414460377884,0.663444393638966,43608.271088858426,14842.455326441246,3806.95898959095,32871.23111033568,51369.39530275136,180.57910133950355,9.221338649545714,18.515658840803333,3059.815363367573,1371.1598487652004,1238.9917407128296,1,High Risk (Failure)
72.83739930586276,19572.970945804333,11137.808428753273,0.19776762761751843,41729.13389432151,22157.528143590585,1394.4165582714647,56011.52531921375,66831.1879334916,169.6020103688491,9.302528093776587,24.70537193502509,4277.62247647967,726.3366674527188,1217.8320109318843,1,High Risk (Failure)
155.22106798490904,26552.04930234041,27021.921050693236,0.28788892937984245,59874.231478843554,25470.484671757604,13963.004465645412,60742.919433349285,22818.9550459982,253.15220482078425,9.029366548163177,21.36200807520274,9173.323315794532,1523.4087493989487,1219.1123197082989,1,High Risk (Failure)
167.4033320366612,11098.688551513691,17569.810559306934,0.931531801409579,58079.61818372418,23167.742148265446,2950.9736156496674,22996.699490863346,59517.84466116256,284.77144520224863,9.623846714838326,22.1723660315088,3169.982136585567,1511.9670644724383,1281.5945718942407,0,Low Risk (No Failure)
130.42439899833622,27755.508955724777,7991.929170316472,0.4148479698098231,17036.624124174814,25949.054370902122,1461.7768463644359,51562.908561657896,37368.82305990398,214.32091885745376,9.792753503689413,19.27074126955025,6266.717537215243,1084.2342096273087,1326.6267852122119,1,High Risk (Failure)
142.1932568344488,22344.503682594743,32066.608596211223,0.434935900363409,55171.78413427881,8638.236542869186,5391.119721023287,47859.342812842246,30842.06639175318,225.62067540744698,11.572490405917637,22.089729690816107,6731.36485139789,1590.7427610026782,1472.8979330775387,0,Low Risk (No Failure)
71.63759164458695,9627.287429787379,32582.88801675223,0.4551853780343833,27668.359160988777,10131.358565773542,7907.0034818167105,29165.079096265174,10722.236950162964,150.2147461463546,11.581744037127926,24.80753891853888,4759.854585978999,1702.8686756680117,1242.0837037153512,0,Low Risk (No Failure)
101.05004539221821,8789.369054523326,19438.284515348503,0.5461444704633772,20416.414280110337,14702.967268009384,14911.690455695634,18482.068270638487,25212.808609260588,288.6080228982989,8.617069456921586,22.172410125950325,3880.647719114422,927.363823464926,723.1128431681061,1,High Risk (Failure)
114.09350549860181,16694.453619853706,19670.52141039783,0.5600043640772588,22355.299904141713,21854.685270216378,3890.5240299380234,27210.37966198161,39557.65193802877,111.03045486199596,9.815053518459303,20.119454191669092,5023.651627174868,1476.191226734527,1059.838296035744,0,Low Risk (No Failure)
188.56602551401653,1520.7780487543778,17135.49209345395,0.974272240527946,36029.057016978055,7563.3745321924,3390.576075827949,19942.629224297583,58363.20074388939,296.86184637355615,10.862517629849888,24.511657926608343,9433.230700567834,1942.7078298063732,1460.202167036915,0,Low Risk (No Failure)
98.20739382104628,17645.280075920517,10680.686830419952,0.14337567106823956,33652.38863125275,20621.031100292697,6599.032082901856,16663.99519561495,50797.432866700074,168.09815295552363,9.644023052374806,21.6397101279535,7613.222476082508,1479.1028164288807,961.5435588271707,1,High Risk (Failure)
147.6147801845978,20451.092437835425,18946.12790463031,0.03618479753292514,59521.40891483383,29612.037078457834,7575.573947146389,50607.634601383375,32621.091382984814,151.64292209085852,8.021520527238831,24.757936825815484,7799.26380152395,1741.8813009324022,918.7232718746602,1,High Risk (Failure)
147.67351823579088,9318.552723768798,20277.357515086253,0.5058672985286884,31419.042419418507,14382.732765892282,13211.960444628245,14099.21633393317,53888.904785494415,216.77721510512157,9.631597004279675,22.7850590943003,7203.2677110488285,1491.0076891576723,836.0687989823596,1,High Risk (Failure)
126.18282798698164,10039.396323291548,10187.674928817836,0.8529070877254149,23867.85903199423,12277.622638179373,5514.975369729501,44969.347330345285,14729.433727201,182.50220640538691,9.879632117608061,21.660744934448367,3687.49322423007,1011.9566805248913,767.7661185042864,1,High Risk (Failure)
180.22001376464732,27926.724806369577,34328.97009651417,0.37749770913752256,25592.325312898854,14461.282812099606,7002.197887987762,25870.30539189092,28961.788869775268,282.8061546404225,8.18335789863704,23.38923541879729,5260.891244162227,1901.633022500201,763.0851029534101,1,High Risk (Failure)
122.79896902506957,29461.221322738733,25225.981248285818,0.9558117431743745,18953.56561116055,11798.520070325043,8100.48025076007,21031.316584198183,13146.632488836673,216.6474607724404,8.878855015572302,24.118286835401683,9307.199133796144,1587.8007811883367,873.1709768241433,1,High Risk (Failure)
198.94552383150943,10357.827505256786,26218.121778333654,0.9016691456322934,37593.22232939206,6345.028052429756,7476.948997254637,50977.36335778822,64509.65508019817,181.78019907505418,9.587745751009766,24.593804450591357,9301.93831327013,1405.2129228797103,747.355389356384,0,Low Risk (No Failure)
73.35425359830133,21084.61120224987,28668.526896237006,0.5437267348301648,58315.779877253684,27603.51180830689,7417.4719867838985,15847.366514770209,69875.2766031501,240.4512054209219,8.981865625309672,24.877307015573443,5713.367906380969,1144.359818461176,708.6892694641356,1,High Risk (Failure)
212.9675429779093,4763.706005955727,24647.15906353493,0.07673951374525623,54708.954381912765,13217.739984686286,1891.3986629210394,42392.334511162175,62271.724121349136,224.13067824924624,9.286558301042179,23.198410912823565,9271.638791381822,550.1197772281485,534.8729066504918,1,High Risk (Failure)
103.745131508913,3361.9691738436168,7130.203406677656,0.7098270749198761,59348.05306748153,27328.795471314785,6268.0064514697215,45489.611630198524,30054.644157506566,144.9933445815873,11.709779122173265,20.136422892364,7855.948335437106,1313.7724149053215,1115.5275737308912,1,High Risk (Failure)
69.99321497905143,25270.90715249409,14640.56917445676,0.14002568946988558,35175.13536561813,14441.27377097985,6685.376783369751,48314.332471997135,28925.218659446982,152.6009687948731,9.738682263856445,21.984697779959205,4349.075029298731,768.4180987125142,1003.4780359638578,1,High Risk (Failure)
87.97418036166601,23913.809838057143,13387.83111569696,0.717536863512627,56836.38743994505,19459.250575547136,4739.3021695143,20987.331923966314,22596.097499738567,143.19188190445288,11.666380202176263,24.78169942350647,6202.7649651914635,1194.7746885916695,1495.1534380570006,1,High Risk (Failure)
125.50593149072293,12428.425806790923,14325.384665521797,0.5264136103948782,18552.967211920568,12146.695891156935,2671.138978815613,10760.585053509441,30183.57993556247,299.66935627772455,9.417746370090498,20.892983289165816,6124.609408963575,1172.1462654277454,1317.4207189784531,1,High Risk (Failure)
64.06181690565518,13053.205678845501,32306.651042309364,0.45934637132734135,15612.63662652454,23215.391978012278,9185.70025347735,34963.5918877187,64986.131330578464,126.43817975878504,9.220377044603946,21.086351673935155,6344.195533150027,970.7986368353272,513.7434153648553,1,High Risk (Failure)
119.95551528118023,10533.63366213859,22990.589426841783,0.6440232166355478,28870.622291847387,6742.394489228646,2619.5902830516034,33482.69761546254,55922.782559119114,150.9821509937516,9.108623001863274,24.4110612472631,7733.24262875614,955.2105147750458,685.2907194035035,0,Low Risk (No Failure)
124.69100289668674,2425.3033200101345,6336.698948529596,0.27088605502637475,44181.75038415575,25505.529943538204,13123.733005696879,21251.868821563054,49454.575090570186,177.1879302874336,10.7816592458179,24.987655107282556,6465.214588303084,521.2235664296479,937.4224327547544,1,High Risk (Failure)
60.74112368073646,13930.711975934426,6656.52880251217,0.8679939333361105,17428.768464791086,17362.599098972627,10328.774952487032,26071.458841629774,59071.83161851368,287.4002531228162,8.815869747027739,24.07262343848091,7518.095418733781,1721.4222126166399,783.4860877042754,1,High Risk (Failure)
188.8691726879978,16235.453972765443,7684.351489472521,0.204653529646327,36040.693301358784,7033.809318075125,8514.587341335427,17858.94959159364,63255.81505649323,295.252036112209,10.65415378320092,21.662799986850434,3145.469679946138,1107.3045979771223,1225.3104220566831,0,Low Risk (No Failure)
180.18834191264685,3319.492001105889,29836.111385185213,0.2772250074218823,50800.08742776529,25703.380845073953,1262.376221177452,34859.58584961479,11636.048796351926,199.18591618374728,11.223999823183394,18.29993557482812,5700.618821910532,513.4077549422126,1019.441475575737,0,Low Risk (No Failure)
176.17461339562584,13552.357710657996,12757.526646583214,0.6538383898166262,42431.15833366203,23535.497271574997,12034.506455000805,22492.91289257664,29317.48736082292,150.76781631717873,8.404778416924684,19.60597008058756,6794.310156461786,1684.8132133626364,1207.9107226828933,1,High Risk (Failure)
174.952631571608,23973.50820998211,18924.05561596196,0.7086035243406688,33055.313144127256,16425.683875510753,3540.1576680385933,36718.292478735195,34996.97302103962,157.62931719639488,10.294221333177722,20.98035343776772,5237.9627604907,1202.2652748685284,982.9812361232231,1,High Risk (Failure)
74.44636320870532,5290.791689172769,32464.306436549945,0.2985887562882926,31506.454263996096,22974.468679422494,9026.838700658449,47478.94354109543,60553.93465011422,229.40768100341552,11.936052940489859,21.343792972276013,8988.089229619114,1206.5109472679233,1331.5422484030264,1,High Risk (Failure)
81.06990454979312,4832.691548225686,23535.774621867677,0.4834690643233511,41768.96328994208,26249.071957296088,12042.363070378873,31370.89235010272,69371.9934205382,233.0706308490753,10.456771848166461,24.386476396022857,6150.9863933243105,1326.843919590773,783.7509535800702,0,Low Risk (No Failure)
114.57061616804137,12251.209877538704,25379.499959406607,0.11767651264529899,56919.269857088955,26090.59471474102,2341.8354135876452,47922.7473488508,28230.358449200554,184.41350389660147,10.490416212405105,23.724475157774126,8864.140979374559,1576.868642851044,1376.9261829390844,1,High Risk (Failure)
106.36023246620289,29132.1592433345,12886.42105967978,0.7654322167447717,56983.021896393526,20772.82316164558,1616.6767062756967,25186.135315893756,31459.76530589253,196.66775121426232,8.410810557084119,19.989589336011477,8579.678275499202,1608.0970626005144,614.7480095070049,1,High Risk (Failure)
101.5606054016522,9255.567426547446,30538.46636649593,0.44136756031978963,48229.12955592975,24892.940036652508,13730.726033071302,20678.322902730608,59310.79961908079,167.74197516163167,9.335683720801807,19.19410046864795,6274.225908840032,665.5783919877771,637.5592562273538,1,High Risk (Failure)
158.01175493517107,15392.558639518551,12580.388832180472,0.6558343876174053,55289.723097476,22694.798184404422,11516.458311884735,60509.57009143266,24251.698294543145,218.4241439212832,10.304930550615513,22.86524809659842,3695.7056383264808,1477.8025181697158,1038.8566642467872,1,High Risk (Failure)
71.84714427745446,7861.683698517712,18264.62341359748,0.3424999930081374,33660.94693422443,14203.893509069696,4647.3247642405,28300.554249803517,63505.96848005954,155.13805422422777,8.646911027957476,24.615658184610567,4657.610999940971,1388.779141180683,907.0612302190996,1,High Risk (Failure)
68.26907538697724,23721.543575049356,32337.029309440142,0.9895481192948771,52966.158154713004,19027.809642701966,12619.991510327543,18077.580010228976,23141.355907735615,164.9466621951033,8.678174923307,23.498497420103043,7846.1088789019395,653.5446583695397,1267.618224964933,1,High Risk (Failure)
64.34678739608957,10732.668082986138,22427.416947388352,0.4577140514982325,55152.59486354168,29184.388299454946,12845.675788659217,29714.684668024118,21420.821757606704,262.7599955637911,10.887135376904778,20.536550683348317,7432.622373028418,1784.2440749290502,888.092599090059,1,High Risk (Failure)
60.10454252180793,9033.738017219104,19917.364405686898,0.110601751482577,46623.59585200844,20907.77038848141,1569.9004305752965,40774.09917361679,62155.1840792131,170.3515134472459,11.897476282564114,20.332738310426436,5981.019046318401,1777.2416743906044,1139.5823696109467,0,Low Risk (No Failure)
79.75197852965681,15075.002016898125,21337.162744665027,0.02016138211789409,17936.778167819655,8052.655105769858,13187.621472618608,29919.938126828423,30685.834588774404,210.01123993712184,11.799404797334875,21.045755955840292,5607.031773371416,1765.100739342085,1101.4260305637565,0,Low Risk (No Failure)
101.53223188400787,25723.623484823045,17940.963691640056,0.5343644288593793,56248.05181551507,28976.544424616637,12965.493626258974,39069.15297612926,18968.227551448075,117.39307310322992,11.157200699304779,19.7720979741871,4687.306504405697,1206.4320056964998,797.6367290380078,0,Low Risk (No Failure)
113.61901668146271,8220.330075679585,30043.954777398212,0.6085717243060165,48434.06105200305,22256.38398530301,13378.901596529651,63254.58106134898,33351.877791736435,142.63886022824124,11.664330979731439,22.910447365794433,5246.472851171649,885.1085738897032,917.3801396292133,1,High Risk (Failure)
65.2041887186003,24125.196064308264,15534.310716704362,0.672567195094623,23139.33171996352,22383.724912708378,3402.516896464665,28645.488734987804,36852.942072936625,258.4496468620183,11.090343720002,18.58841466558721,5642.312325706912,1428.2836537863682,1255.121855895824,1,High Risk (Failure)
159.5749223387594,5771.235799391559,19431.53382428955,0.6107813560779473,15407.839418398999,21041.112427280506,7464.260560229552,25064.14801561872,56302.096350228174,272.1406345819206,10.873168028285395,23.71165348645659,7070.503716170508,1417.1807819516366,1451.9403789428295,1,High Risk (Failure)
128.03650967003102,8473.173797486212,31618.730053319883,0.5166604958019403,15404.743176784401,20862.48073348192,14692.405621344373,14102.48634357909,14068.14098312075,187.757198134826,8.172140627687794,19.383736325243124,8578.092971770464,1265.5404825574733,641.5146054874303,1,High Risk (Failure)
109.2473330689193,26328.352279367362,30126.882040289714,0.36799966144809604,48197.43312756852,7404.992345057416,2735.69192104,65242.18007221603,22056.323208840608,271.77571267094515,11.027681451009219,24.12003944194168,4338.910405606235,1745.2324656495166,1383.586059707899,0,Low Risk (No Failure)
218.41741537389854,26784.461316095843,10680.012604912114,0.07747806596373052,46249.12272856418,21671.118989209986,7955.972216312104,36982.308693020634,54194.673929521894,155.92239854377118,11.43514893003988,18.67010748040555,7720.149085302369,1733.4487341821878,895.2725208225168,0,Low Risk (No Failure)
130.72534734897977,2297.791583860906,11282.851584168006,0.8820505169659657,35590.52056075356,5740.446455444355,2873.219621019792,26012.178847765314,48603.046516831026,246.42725222596857,8.010961971091168,23.65901387314391,9989.25401926264,1306.6604120138468,817.8120508731492,0,Low Risk (No Failure)
78.96041977570425,6979.878761151586,16199.149703686622,0.009953625713364334,32277.905379753993,16488.306825649823,8069.210828649694,34790.37191479118,48776.21866676314,107.69099663020873,9.016866241737219,23.862275119819053,3969.0802466382725,1651.1560657085104,584.8510116106602,1,High Risk (Failure)
85.61146159273167,28352.67964111007,26547.13984943853,0.539418192753467,21547.934054039448,20868.612968081114,13513.637173103674,64954.16665552606,58158.195928771755,233.08465098209203,9.746587517476538,23.82366210671426,3368.591594126804,805.8783543250515,613.2675809721958,1,High Risk (Failure)
101.31910212783333,13734.789163340665,29711.72858410962,0.7513072956521765,47327.658080273075,29953.25289809563,10972.121425930849,33055.57780408417,35026.71161257448,178.78438173893437,8.383249390582582,24.3237298332848,7667.987243377314,707.3824644276931,518.7705031296051,1,High Risk (Failure)
146.31860678005395,18213.68237801464,22232.854490094334,0.10959787033512702,46813.5680960695,12656.441910147609,10656.58066154524,64715.55375519023,44317.38836487792,234.2861921516396,10.460703188731118,21.776355553810863,8874.383935791324,1111.0835061524313,940.8144470101548,1,High Risk (Failure)
148.88793118169917,21173.581849916834,31386.897128383436,0.2753448501384441,44962.02438250166,8107.70748128181,5785.688874875595,38546.57417681084,15114.303710038475,293.0095638167763,10.554141447769823,24.205413796954453,9945.109807560108,1280.4400545860508,1374.8242882872412,0,Low Risk (No Failure)
93.11881255014828,4077.770559961564,34651.69635919589,0.243495259185182,37417.57870593054,29658.117716144894,12265.875994913893,20648.334295657023,53501.77706295248,153.78405529270825,11.005053318304096,23.817259559226116,8761.736683147574,1266.9318470139744,931.8761514946534,1,High Risk (Failure)
146.13311092091413,11844.222694509464,7749.146155271836,0.30469634008628943,55167.690034006424,9638.635001948824,8686.132751671967,16751.607418767933,18768.14140070739,101.81032835117261,10.560895690155888,23.283660444428282,5781.6512442342955,1309.2493179440644,639.5835529631456,0,Low Risk (No Failure)
62.942508247594674,20857.029752549133,32132.760269514507,0.37092342510906495,31176.75533222457,11145.781707249276,1020.5099029686633,54130.3811291406,56997.77781354187,295.4788041648531,9.804062985265517,19.116482734437998,5346.590801424252,1882.0739691226813,1306.5698912805917,1,High Risk (Failure)
192.00790562880994,23222.818062448103,17482.1070665984,0.2589821774319667,19017.865451307112,25349.516829319968,13050.778666193102,32929.17083185274,12485.232585322014,168.89093768823582,10.61889174281686,24.611563390170893,4506.225726954162,563.066652192116,1277.1235330411237,1,High Risk (Failure)
115.34039371805719,2786.631573481608,15803.531464670115,0.981808022717827,33524.74973264939,14677.603959221822,2326.3403902352757,40421.26560313589,58320.61585292271,175.9817867447661,8.377780474844823,21.36974685043181,5261.1083338534345,1716.702602211084,1080.6158547840478,1,High Risk (Failure)
105.32550455881237,14602.749866413455,13546.659167091831,0.19303616221432107,45589.046445706736,13987.942303063512,1927.2338385174294,28797.535189579336,46171.95851346754,141.35212972942736,9.196740775053295,19.455207242381817,4091.0089673235743,849.4450824067007,918.0882210916229,0,Low Risk (No Failure)
214.53317115493323,25503.56094090552,18576.00932087902,0.32086504502396973,59827.21332975034,9391.392337279063,12347.464005006192,50066.62787933916,33824.55728122163,135.41815276873893,8.899737061364323,24.173792312405332,8745.33282080921,995.7698310986756,594.1375326797743,0,Low Risk (No Failure)
168.3900913965271,29433.65313570906,13765.304101461346,0.4979901277547686,45085.31365029494,21006.973631929315,11961.09717501238,30467.965159743013,11280.765965701812,255.4410613320725,9.145972644790467,22.598644286992943,6713.894329450062,1921.244098161047,1334.2224148811656,0,Low Risk (No Failure)
104.94952154998091,22376.840004742535,9444.017660491492,0.10001809002432227,56395.238136853404,19058.697223383002,12444.564530230138,15791.953330713633,58623.90580738637,279.2543800826503,11.550243719543335,23.114867988628877,8503.602055243473,907.035380022859,742.2815484700807,1,High Risk (Failure)
120.23413870048793,24430.76251516155,23608.364513025284,0.056947948698448214,29066.11164868923,28953.768693997037,8600.35405217102,42800.09814991453,65676.85133464934,265.87363692365943,11.559440749661025,24.161176391450496,9271.189135654648,1771.2904899380746,888.4096991648073,1,High Risk (Failure)
192.40302753700848,16743.46583846335,29201.443041341827,0.240548848214587,33976.21711731818,29299.692053119034,1167.4700958241351,40175.75286225737,14132.481112493755,109.99840297906277,10.501559254948937,19.444393608732547,6572.868116383706,1904.5180413685914,1248.3026692872554,1,High Risk (Failure)
99.3532365415213,21395.039604241098,5101.635439479174,0.5442497144956385,54597.60342929078,9335.759256388941,2949.063109243276,28219.9478945313,32054.14149790942,295.0337904367871,11.0221878100862,23.242456959455406,9112.41901009709,1924.974697973228,582.5731483632509,1,High Risk (Failure)
130.0164998488627,14149.070688103773,21366.87632503274,0.9082886234873289,38537.74090378734,26767.502772460517,3618.4512200815193,59834.00687973554,15184.723127132096,104.49621997372978,11.2255143574841,18.822287104654002,7265.1971174671,1624.7288115173794,1472.330723685358,1,High Risk (Failure)
131.28666219870254,27021.656376742416,27869.562850819275,0.35446162029588657,49245.9271896951,19406.206253029693,7266.9926860457745,55667.89321468677,47249.30599969013,187.79744588468833,10.943511469195238,24.230548899363466,7206.644177079359,1772.6070084858807,1414.6272546002892,1,High Risk (Failure)
163.32973002483297,3080.324968675324,34205.79655511756,0.3759611021613539,38825.918338716,6848.391087917439,10273.020146443865,49987.96572939957,63542.19389352082,224.96854249620867,8.034709638766401,23.558014506753054,5595.640154611415,1250.4851203524913,1347.6452874621011,1,High Risk (Failure)
199.49496443923712,4945.630798517645,24881.672701045332,0.2527078597091249,59856.96524532822,29935.067673575853,9667.846180659597,38902.76523266526,23874.30613595114,128.20762362283185,11.676958064916342,18.138090168897698,6611.599343437736,1436.0883811586366,604.9286935611074,1,High Risk (Failure)
92.93459360588292,2385.6595757607556,8588.91318548211,0.3223550934061763,55539.59545446815,19458.745711204505,12785.118765210616,38662.78919068785,15496.029945936958,155.0325809971319,11.678187157800217,23.796257340737867,3666.028585118098,1740.526911758162,1173.617240557312,1,High Risk (Failure)
90.16649691988019,16436.826551596823,32202.271177176615,0.547039143620656,25094.12591876033,8898.302407700503,1266.7027344358166,36705.91437384313,66191.17729985277,132.4811280786552,9.228924346075726,21.459434122691892,5740.516942216008,506.0456248017301,573.6730832613008,0,Low Risk (No Failure)
148.18559390661954,17070.921926719002,19137.10061874943,0.12273931954430894,42912.915426982945,17594.38584597677,7131.000448354753,14265.336894653025,44340.37662843436,144.4453204719206,10.2292809973705,23.038862727828935,4052.7881646021215,1640.7538872730236,1190.4316188884954,0,Low Risk (No Failure)
160.25480177491363,18674.56513763204,28785.33601511366,0.6697458074256392,36585.90395792187,6218.952469754978,10996.525976193816,35731.096565010215,69731.96635417263,181.67975666544896,10.316469857953606,23.854186878560636,8954.167623783107,1559.6310157428713,814.5096215181932,1,High Risk (Failure)
134.5890545804091,12134.517933626206,5051.7446632952215,0.17494651375798786,27911.603119051055,7814.21841066263,4038.229718402285,16891.23750970456,51342.106186712736,254.52433826083293,9.989376139256414,24.868939288039662,6906.248780352669,1836.6402307889045,1355.739335195612,0,Low Risk (No Failure)
163.2915490283885,7826.810216404273,7622.980924809273,0.12652567631557798,44849.663604675035,12902.261185499217,2468.0262013109927,25229.7551415668,23309.160609399005,205.74220114974833,10.287728324766945,23.96346969160012,7311.391465264018,726.4832091120285,1113.728118653688,0,Low Risk (No Failure)
107.62404441092487,8671.84230055521,25215.138835009308,0.06040186879292697,36165.28265816919,16850.225543691562,1524.3877436018927,22042.092530462352,48248.515462458985,110.38340702412115,11.757019417083509,21.08063390332122,7155.934785769656,545.2558913660115,1085.5207851045393,0,Low Risk (No Failure)
102.45218200887471,11541.919263708734,13478.768178544793,0.6444304935146186,29571.834055122374,9383.191563415729,9470.024018194554,10083.570671148142,52462.7295051293,197.39827132467508,9.016315541366867,21.98743142749619,3289.3719920106378,1592.5453978401017,1098.6641556625323,1,High Risk (Failure)
85.8180481688614,6584.8673412973085,34457.53353504243,0.6713340311030056,30376.42532206003,6549.998458452701,12339.621321821945,45654.82893841736,26635.876146408165,131.23873866901346,9.376251337376793,18.47424052269637,4153.024690293404,1416.1646148022705,1002.1791097331857,0,Low Risk (No Failure)
87.72709121133532,28807.28432252189,11704.829427675199,0.23314730361808655,46467.36579009256,11493.383261668698,5292.9837674246,10974.339516959886,36377.02419518493,245.41119317306675,8.60078847464783,20.977744867201494,7896.295391206981,635.7429506461615,1325.3316838683725,1,High Risk (Failure)
135.40594678370633,21622.53269344329,15314.674737762572,0.8982726644925535,24085.596902997266,25343.464015720918,14336.339407251862,11048.667302836286,14782.097022172842,128.0235341325087,8.875650758719406,20.219526336971683,3373.0544888866916,1049.76589455858,1233.3218223056638,1,High Risk (Failure)
107.206513224665,16677.71883541714,23993.204681531948,0.9180765622686413,56427.72379015404,6109.913979240831,2113.223076431662,60608.87349082263,59398.91853108999,206.03092563110977,11.181405684508597,21.27471720884858,9541.627358061229,1002.8362250701987,844.7152777025284,1,High Risk (Failure)
115.99005657131426,22041.479179238497,26585.049651432975,0.4433956658334408,36013.123434543486,21365.52338000786,2938.302056388306,67860.76482296773,55207.66635229501,162.13452867488877,9.792455582384314,19.69955540749656,5328.449378747173,994.0956540308476,891.2747230610416,0,Low Risk (No Failure)
70.02451255285672,24371.2694334698,14874.101166682409,0.796974778895813,46750.569093400496,12706.675074656232,4474.321804929931,30632.847726001135,59985.573487027104,100.98328434143966,8.626340173973025,22.397044126748778,7002.635904039176,1924.2589491911804,1052.7057085546244,1,High Risk (Failure)
87.34982438733573,12288.7255074624,17880.283501123235,0.033821641719199214,27702.19802620952,17987.175793515613,6152.530236959208,26742.224504877737,47899.49875335655,297.0924240095335,11.862030210778554,22.694711272589895,5767.978545071485,1545.8663554474572,1041.406523121314,0,Low Risk (No Failure)
192.13068009036203,5488.795010537247,12565.854842837547,0.5420419845539489,17935.469757036906,18606.79735752064,4264.211979512462,69291.49357022265,53090.49892015292,170.809309036729,10.71602396663463,18.499460583422398,7621.8357632548405,894.0085610903952,1377.925907964656,1,High Risk (Failure)
109.35492503831745,19232.92022374188,6087.569525443845,0.7800609232181682,38354.15640854754,25826.612247202444,10488.316554736379,41870.7866579978,38081.01400034556,279.8189496533516,11.178107091993486,20.91202983116428,5144.385778870135,1451.0938739542166,1288.4262488750096,0,Low Risk (No Failure)
60.96752690943654,1670.2093855659737,9116.516948301978,0.2171441578399188,50920.54412432162,19460.17374427162,14672.050446420273,68316.27955422808,23781.730768313682,277.12866310957133,8.117990701359252,22.789060857119736,6340.328397097881,1479.4905196539821,1058.7966086759943,0,Low Risk (No Failure)
61.71444763125743,9643.233160949321,27838.14288876081,0.4102050052835323,53285.97202438262,27735.704974725166,4292.938962648297,10807.091758282897,33697.00667088269,149.63297669811635,9.024906885956927,21.294849326161533,8555.844678376807,728.236006676575,1151.2236529807647,0,Low Risk (No Failure)
110.80795204121415,10366.383267550433,27249.82666154266,0.32788871863714475,57344.95175212937,25838.542572071274,7971.524850100863,19898.923800806748,23314.376851537454,209.21091207458005,8.39492912510341,21.968506640426497,6972.986407962563,1020.4982449361806,701.1701432400309,0,Low Risk (No Failure)
61.94508343638189,8463.598293647388,33968.77168512778,0.9307393963624127,56697.9606857365,28683.72490886335,10024.304282154002,27991.855806005326,34104.28022802622,228.0587833902172,8.06220899134635,18.592278830527203,9712.238808335926,1486.1408059896164,762.2782416628983,0,Low Risk (No Failure)
125.3042705386717,28567.58477581631,15288.05347510116,0.3877831574463789,31146.17462559901,7770.290070915888,9718.45260013317,66327.35985128483,66056.18191190317,192.21476499872952,11.54763235422504,23.63755292515593,5320.810961555791,964.0676337507506,728.6733041453416,0,Low Risk (No Failure)
209.55678647812815,27531.698353523614,7927.375087288083,0.9960669551947968,38755.33728195267,27240.361698224497,2030.7851259200793,25492.985074082586,12690.918908193953,212.79335423931082,10.938431065348063,24.979407591035887,8905.3070983527,778.9341570355584,1368.5795707982859,0,Low Risk (No Failure)
108.46894490246868,12917.857633041196,20193.8335630124,0.8820544042787685,47561.01952385172,8328.601478335107,2309.326148577962,42461.74125247571,10323.039256715136,155.07808995017072,9.65237852011097,23.405038271674776,4821.50283155511,1649.021820995004,692.5099449354166,1,High Risk (Failure)
173.94867541560575,12418.899105396795,32190.626332869386,0.5265156165216303,52491.53867380914,6809.333575437613,8268.34764438387,26618.61195771106,42690.14458047658,166.158522969258,11.288525825542774,23.06546492074766,8708.216705155824,1982.1446145542373,1215.8516268665003,1,High Risk (Failure)
155.5699805329139,7297.0717170924845,12532.37072088036,0.17226481435578822,57832.7346134997,11434.94947700963,13665.68531263985,39245.42190852718,61194.62759001576,272.3413420837031,11.161268218897959,21.659833753291107,5033.056000284764,648.7784141904683,571.0776141537543,0,Low Risk (No Failure)
68.8968834688737,2564.0449023852652,24614.13978152992,0.9950312250060355,25072.907485352924,27339.995467050278,10444.882215372652,64982.63227082451,49067.07268616787,132.81291003848364,9.920579520189754,21.67502705019802,4912.866805810624,1096.041057098459,808.8302851453918,0,Low Risk (No Failure)
106.85152587215435,12745.031859038903,6264.512508888026,0.5499974854873578,26065.636915347,9504.657983288334,10611.815695609966,53766.03340684848,32486.517784809585,173.69002341818842,11.83905056503217,19.445193834102813,7166.7702514542525,780.6478782587291,1246.388095450015,1,High Risk (Failure)
123.61798056845929,26235.704024275023,34439.84873415328,0.03075294050971633,33028.66698846126,9174.658823562308,11438.17615277906,66390.23687544886,33940.04071643019,230.31216057971534,11.110427070585082,20.213278713193642,8003.009188524686,1469.6845244988292,659.0251455753234,0,Low Risk (No Failure)
112.04722144368498,19787.27411963857,31126.7171008,0.05495787465006641,52325.70422915498,10011.386532634499,12479.413690158124,16832.57222974056,28985.72820136758,136.3404775075207,10.583018258169364,19.098599085648793,5435.504629437575,1906.7611820451843,896.1884949872295,1,High Risk (Failure)
92.20993725158932,12122.500860585333,12344.268842364001,0.6094615860107644,15987.36604189038,9700.428838839445,12425.660912661748,48369.5605003288,38453.268700163855,216.19802154989438,8.72251414183164,20.69587399003099,3627.538134077097,1562.8208186693157,1484.6478369418444,1,High Risk (Failure)
170.06171556813013,23853.01933767564,7719.86265528015,0.3122318396207352,37868.31974790916,19296.806362733852,12698.347357219938,68649.51963340558,13060.732750505795,292.99736472458403,11.814223729271177,18.74965544030377,3535.863707937253,1278.441935592591,1102.6571037428614,1,High Risk (Failure)
87.76392239784138,17103.57893451726,21023.050702575965,0.028864839458030755,49900.41773103663,24551.41172172058,2974.1349913396402,35445.38257606394,19869.791975039123,116.2028289371748,9.140310671479462,19.32762790348125,9945.269866986586,1990.2438791460997,901.2140896539306,1,High Risk (Failure)
100.15466581444768,20245.116902251688,11205.231144306837,0.5877684626060896,41330.50462757195,29177.95886237456,2902.852377229714,65749.1823136235,18981.55674896296,173.216597615904,10.933565372990149,23.44543454299258,9015.962249218366,1959.364115743828,1456.3439859237465,1,High Risk (Failure)
216.53676592909707,7253.553119049626,31643.23757034416,0.6441780901693773,30233.115994679574,26209.428466815414,13718.220938603732,55556.157047833476,30928.67341526737,222.46372453346726,11.392924432362172,23.29075271059795,9960.144117977145,610.4487671766924,968.8061387698658,0,Low Risk (No Failure)
155.07869236937555,13263.183862713526,15421.920852510166,0.34017095038848955,36490.046980343104,17422.218707564556,5727.938782358209,20709.982903945787,41603.19247383252,129.5004390157132,10.47015333303823,20.165645750173233,7719.930168523522,599.7064810513016,535.7240749437741,0,Low Risk (No Failure)
213.57804843415283,23988.39876764179,25809.045221829445,0.16636272431172183,47457.84968690216,7913.601945382969,2840.130102337088,23012.42171342767,62869.74068136792,145.64243145754043,8.282659016200814,24.25803290446728,8084.648665619748,1081.0123091879739,791.0274052597213,0,Low Risk (No Failure)
89.13886651019189,28571.59668316748,18277.67069973376,0.19758094435047702,58599.29124071722,13476.90854509782,6155.6665489035195,16601.777448727247,44898.56439413593,137.31703306054234,9.246194527043336,23.715064940586792,7775.313305932411,1754.1734084353934,1319.4191220038874,1,High Risk (Failure)
209.52702091448248,8953.593654608092,19458.328381781623,0.7189098153252109,37682.03324055576,29818.78183129878,13690.775026946952,25108.62102723276,61656.78058616521,139.9744084125325,9.420608295385774,22.679778414883216,5435.046388472763,1378.1541226537856,945.6540076350343,0,Low Risk (No Failure)
76.30278209056216,14003.827389462054,24477.281985139118,0.36947872363373324,25585.556098679095,10326.168669303966,12817.51493982032,49142.44587852114,45412.28004627029,109.10973281240935,9.227525711892964,21.245566778044825,7623.2760444284695,1132.3289000435868,646.2654527484813,1,High Risk (Failure)
128.40656293736794,8609.842918189755,26624.489494247468,0.5590612877652517,41874.571238369695,27587.702633926467,1673.0235754768414,25818.65879669885,12495.764163227248,254.27634535202264,11.477824487542119,24.430198443177012,5954.234899252325,599.7100460951415,847.1159314796992,1,High Risk (Failure)
202.18545284246377,12435.893244169265,32452.30295836418,0.3688979435205936,49596.52453071976,24720.866338129585,6282.96460804288,63573.20036287933,66759.13803007512,130.49804321575795,8.738078314689526,19.65942049545231,8951.143015647944,1764.9808895679357,1321.5707246002876,1,High Risk (Failure)
79.18257495563394,1568.705441753354,5409.735092782399,0.017602523701344963,25621.242233677134,24902.142406739375,5367.025158827689,54254.498329135466,34677.457221447985,143.29055469686594,11.959143100429923,23.337906396082005,6038.654751317143,1996.0277388192476,525.2260460329775,0,Low Risk (No Failure)
111.73944993848332,18295.414391081384,30094.195749979135,0.7225540966161562,54027.77486501004,16485.73295981328,2306.593583691527,35404.13301000611,30288.64770501459,144.07519720417787,11.567225657874264,24.579531957803496,6023.75657026062,1326.8492346172493,1374.2993805026172,1,High Risk (Failure)
208.60927371006164,23705.091009456148,25302.100960396598,0.4370240760986729,20645.614029344186,8356.949171549584,14167.858024616906,55069.20209038592,56972.75897132574,143.44421102571866,8.218995889934465,21.110321745882263,6790.33707990109,1583.8097488926187,1260.1986165614385,0,Low Risk (No Failure)
90.42060261099292,20598.537436539256,9218.174122295804,0.5971243771775492,59630.03572947176,11535.769596726874,9727.899626920205,25660.034144794492,23258.214533014612,180.3056054585096,9.96754254061875,20.202172308083448,9824.272154718194,1522.1929451719193,1276.2162240229745,0,Low Risk (No Failure)
137.34518975570347,13205.999334017553,16803.064683105807,0.4540761443123418,57342.096425639145,19518.719407674515,8485.445914566035,18096.075060188217,67693.00036502925,246.7551816509233,9.85251674002673,21.830016048733242,3738.332125196247,953.6043662229611,1102.4106277775834,1,High Risk (Failure)
86.52392642612412,27966.24398652249,24510.966814863372,0.20379383529992168,36079.34732228628,14916.14514637828,10060.760412117595,64279.79018391576,55493.66965309543,153.44039825075626,9.384097083053456,19.93263840036906,4412.352344158708,1121.295942137377,1474.9822518998476,1,High Risk (Failure)
183.40325546975131,18811.40108525133,11079.70765971293,0.04322315141777899,22435.70505946804,29641.496188955956,8856.853650924058,13922.414226778219,61459.2426077197,254.8819578536024,8.322948713600054,20.591569353822898,5349.513220603293,1228.970282819363,986.5401230098871,1,High Risk (Failure)
96.20358880050979,6930.625822091079,21889.445135457972,0.852806111090902,22378.295346813364,29041.9448674676,8565.908182427826,62322.59091252964,11570.088300276024,152.9995010434315,9.425601542460026,18.684788651705933,4535.335478261346,1561.5782724980286,926.3198498732147,0,Low Risk (No Failure)
210.55877161190995,8351.529467067421,34948.06928612206,0.5366209028549586,58132.872121209235,7930.514704864543,4091.765211986055,29737.255880928922,31555.30760217177,107.40561945595455,8.291099126620372,19.77934835254629,4895.224484729372,929.88633485836,1177.1147557479799,0,Low Risk (No Failure)
66.94600525677106,5188.65804049725,21446.113183764548,0.4910448217723773,39471.69780791997,25786.044495846207,13104.437805931704,22167.93883690469,63449.95098802856,203.01370354631283,8.80894407340912,21.6319696117001,6899.246667778072,1683.6325171070323,743.9505536157264,1,High Risk (Failure)
125.35251409131179,9701.945404257758,16974.249832818543,0.3805661329472163,50705.522912208886,6442.511737276109,1536.4319245786314,15259.672985593466,51081.81573570736,299.96475003937246,10.175379471549078,22.789463090028747,5775.267428335297,652.6635033727291,1212.8174464133533,1,High Risk (Failure)
171.5872427594944,13121.538479700494,26083.486314979247,0.4895395420941543,30346.98608355941,20695.357417188618,1629.5311113182697,25089.948223374326,47157.03164900744,109.32315296913498,8.681563216290158,22.68011523107014,9414.559217053804,1634.4533007803852,1322.624441162247,1,High Risk (Failure)
192.40606329069988,5961.4930388576995,14669.99935401421,0.5168585255373174,16225.669616289633,21486.484924432785,6331.376112327073,33714.817656799096,66631.94038516378,125.2636382347094,11.75545014775911,19.120781030099486,8833.527279204804,742.9653889950372,752.0226891270629,1,High Risk (Failure)
160.43328849142685,4103.844892120105,21732.942772941853,0.31308316935135205,28148.144973810766,28398.344281133184,7533.882388902366,47627.83783488323,33963.38228830446,102.31375669651592,8.445821889940945,21.336728737369086,8337.678898585722,1647.7921731058698,1450.8010002842705,1,High Risk (Failure)
151.24591019702248,24325.289456818,17356.948928298098,0.9966009120549105,31272.91413060467,21971.361095851564,10440.495392042518,12701.208967426252,61461.38000843456,218.24152597104427,10.42061824150132,22.037564604679343,4839.301611427824,958.8822838666338,1386.4357936624374,0,Low Risk (No Failure)
155.5448489584483,14415.958886078157,16782.5055061613,0.3841891520539801,39447.052871928696,12630.18156549978,7827.363609235117,24444.80754493919,14982.62887873386,161.1753523862016,9.645842445763446,21.345593624613713,3372.065138001568,946.2205802359148,1036.5330771136228,0,Low Risk (No Failure)
61.210059996502736,7754.153320834968,23831.012408022198,0.5469348524482108,36701.418235227975,23395.290095404464,1297.2268834356198,33233.53272658327,54851.169690459166,216.14610577844135,10.96511190665992,21.075113976684705,5805.803233663043,1008.5742996482352,1312.1814514361915,1,High Risk (Failure)
192.0665062598317,18102.14204621751,21461.58816749148,0.3754511200572125,33072.83583356567,18900.456911523805,13577.484503185695,50162.883644473,27659.977870287166,275.38031677402483,11.250497902150002,19.129353038332816,9091.29508304494,1392.8912705552034,1453.6460345830928,0,Low Risk (No Failure)
115.2133992821174,16049.18356367795,23944.207013982505,0.4643348736103855,46280.89720582882,18523.406079951877,5350.754587161604,24212.99012377976,45328.67893335851,292.32111461913235,9.68818531779314,20.066090482092793,6274.509789511805,1190.2450807655637,1442.104217703019,0,Low Risk (No Failure)
140.09988289126684,24507.511599544672,22580.4913243489,0.9601884300099253,35548.30451180137,22266.659744035725,10788.072898114235,46970.40912478881,41073.03520770258,112.65849107914563,8.031800331546934,21.020127771603764,8649.647441903751,1664.0047903862737,1498.315942045242,1,High Risk (Failure)
105.71321082574245,8246.156492479951,25511.92080531617,0.17111133333742967,43125.596210222066,24052.391764543,12909.501576117293,28310.150308572942,11951.78543718966,282.24334500091504,11.162706205756422,18.3662638544203,7819.534306161607,1315.1227867279863,1097.929315057763,0,Low Risk (No Failure)
144.9871244801651,6775.550030314943,17477.49598798148,0.5639244579209632,15825.744440434206,14878.700205841342,13583.160719767675,31875.67535953498,28326.02751141925,290.69677757558367,10.163132905427524,23.460777113616818,5003.456409790737,938.8295649974064,1260.1394943946657,1,High Risk (Failure)
137.2863516094224,6094.496641088951,17220.04761509782,0.8096523320704518,25858.573901473377,16868.44037468252,3287.3453087293587,49947.26914194121,43903.76924482572,183.1216627761247,9.431013170937952,18.48309553093538,7627.027057222857,1715.312313403074,893.7952665191362,0,Low Risk (No Failure)
209.80489943502826,21648.230874746718,10385.848774810001,0.7138914693281131,37831.359445105365,7605.098808986345,5527.711330911595,39379.76279350467,30102.579979893522,183.36450010034446,11.537385055139668,20.392968471662055,3771.7581610969396,708.9306967032699,1368.4010531018748,0,Low Risk (No Failure)
97.12290884940971,23060.439375272956,31369.769232759503,0.7088571132042747,37044.88981303963,12279.45161872288,7096.208885124389,35864.451109390575,66077.70437011914,147.16729994085375,8.077863705629484,19.74161198860174,4112.033543399492,1041.2175784417598,1451.7199260323837,0,Low Risk (No Failure)
61.816583162787055,11633.68751138646,12553.653600406531,0.8664151295248242,21620.41552804131,25900.54146114932,5878.29067602041,47406.99371833942,55868.54852980635,183.55271681730568,10.86950207041885,20.125469667789226,8397.069471793886,1385.8746822149953,1213.6570983968322,1,High Risk (Failure)
116.73954522252424,4097.808795955728,20278.669720397786,0.09289971449411938,29212.417281887567,20426.354865544814,6349.630918621483,46072.47793628546,31486.267553432022,222.77540399920596,8.029882736804108,20.5943118103727,9882.276042814254,1171.771024901912,1357.8508439527347,1,High Risk (Failure)
124.55725859398353,21600.193520657635,20296.698446168306,0.8047370647669405,49776.28833338953,24930.4166524124,7953.335479442312,57615.05502502712,23931.72271109205,295.00096533685223,10.445787514996578,20.883711526240997,7214.535574462967,1778.286132056246,839.4007664586657,1,High Risk (Failure)
188.55723892750154,24798.605250279885,22445.24928872217,0.7839607870610179,18750.71971143834,15502.575785143661,2008.177218430235,51908.04198469758,28623.44952654377,199.92227378924923,11.17034249708819,19.906056452354587,5407.5044000272555,1659.311887486387,864.5712105139314,1,High Risk (Failure)
92.82234247712114,12796.438708588152,13417.706479231068,0.23063464566141334,56340.2927660084,14831.841441474728,11831.58388192195,66748.68199348776,22438.234264366987,267.2640341750226,9.710919017263844,19.11674145887963,5539.927085891688,1974.9599993411678,705.342375475672,1,High Risk (Failure)
119.72028666069441,9668.858352851663,13810.292400753086,0.16566316747641274,50071.46260865441,14553.649172219208,9734.364171736624,50780.34220605182,41555.88966165656,253.024996231901,10.510126210965279,23.817666002500815,7233.494454154255,1589.1818769252523,1426.6525336023683,1,High Risk (Failure)
181.5037219868742,11927.508205452163,32839.07185361134,0.8657741223560754,36332.84058695285,8307.388118805702,6484.757122580373,10518.158916329872,24193.642117172123,265.7262480766629,10.541482035506235,19.724414049889,7250.111105451967,1358.2649352751885,961.1502595466028,1,High Risk (Failure)
124.47682860242583,8342.833737729325,23506.522158991844,0.3416160624673348,35981.52244095728,6107.33816008545,14357.988995202668,57966.84347217848,63093.64448511146,249.88609985508708,11.908688656787598,19.458679657020404,7055.252081006066,839.2295035833461,841.2589723236565,1,High Risk (Failure)
134.8289939975803,29306.046994925226,23805.608637606,0.18023365181846118,59908.05219760287,15664.773629648369,12682.60020157209,44760.34664774487,27768.49882821447,191.54590654243088,11.908765800209197,24.769148577696566,4702.504595130218,1001.0829016600778,1113.4891120556827,0,Low Risk (No Failure)
189.31763360147553,20197.12534406839,13682.15392113238,0.3934135763504242,48438.42606522042,24254.67877762062,5970.636119721706,52595.59400172416,64438.66941919966,298.00695127292397,10.717417123247131,24.77613272662512,9406.765761388353,1022.7300834311144,1346.883685668572,1,High Risk (Failure)
90.0993855558018,8965.310223849257,9131.849045514233,0.4074356527661438,41797.68968787462,15709.883723141467,8637.036769415552,39022.40973399663,13082.410260318651,292.1896091975584,11.15342846744348,21.46203207021033,6230.7666226213205,659.6359161306298,794.644693699019,1,High Risk (Failure)
149.08558574851008,28791.502907960217,8295.792711582002,0.49451545695831844,24228.81743873888,8998.4827359891,8458.387235676888,25636.682248485995,43142.476060273206,261.8579184219635,10.611211689349998,18.671029475091313,3547.696321825579,1565.8094340933535,1301.90764856231,0,Low Risk (No Failure)
125.05448597751555,29593.75559294912,6899.5774091696285,0.18004989996678544,40146.03754592984,11467.89005470847,5152.978086955549,22162.57349824143,38741.26339317824,117.80833320906424,11.38261256126433,21.78572236557311,3373.8134485169962,1528.108519342923,917.9726084710915,0,Low Risk (No Failure)
75.03711037453904,26843.062662011773,29867.896735790364,0.449139688459391,25208.11929754754,11981.965947462304,7209.278326661597,67266.94519940973,11942.538198361935,285.3377577157495,11.712064579345737,22.068767230539223,5114.5342778827635,671.6671041683516,1196.061584904948,1,High Risk (Failure)
190.94086796472564,25914.780432785767,19758.2114782807,0.6736543307822432,39428.49079641025,19135.143961026726,5587.278797990545,63181.77158069931,51339.552366012715,240.11925116075867,11.657962646452226,20.500693701946393,8293.822537870004,1386.3638126493618,882.5218395413333,0,Low Risk (No Failure)
214.0984178542678,24456.897631973396,32041.605704319714,0.6670015326808647,30592.489695758144,6375.692849309185,2027.7693100414933,14508.516974071601,20829.695925034765,139.56610100815575,8.430350855719533,19.4816500820352,8142.31886650111,1002.450506260396,780.0678001993394,1,High Risk (Failure)
178.97502658824956,9742.229405909371,27224.280941982324,0.5157361044143699,28392.514112464174,12908.732194075805,10214.783183330512,66190.92695584022,41172.23056340222,148.4321128640057,11.93387147011861,22.597524960379907,3024.124556129862,1517.0160570316884,1170.8891697620847,1,High Risk (Failure)
82.3190177043267,13626.493378592791,5855.600745159447,0.8320620967541508,29392.616548138518,10048.936859642246,7104.848569292266,49390.638936841795,69728.83587530554,116.4654719143501,10.926029478665443,18.611405733466015,6254.210106020759,893.0958415254908,787.4233529715448,1,High Risk (Failure)
168.81790167151564,20161.094400165395,5123.043512905012,0.45059712910359984,18882.29209800955,24631.751647751862,8451.198030597021,27047.30876649872,55377.929059768656,122.90132075202152,8.460153017127064,21.113616995780678,8560.65033415538,998.749905452079,892.2651082708489,0,Low Risk (No Failure)
155.58609634724934,24937.756976710232,34990.19615726276,0.7719890702546909,28001.482431713106,16401.655231672914,1503.2703367442489,21048.18879225019,46430.51321974047,193.78209703636273,8.533539002068323,22.02984537001247,6345.343230065329,1802.148292527937,793.0200854185935,1,High Risk (Failure)
199.1950655436296,15417.851140812885,15483.42922350885,0.021851377207778744,29052.850915016483,22826.359900657186,7573.237931752909,44151.97312833829,26495.58683370617,134.92111009401026,9.991875955337939,18.505173555280976,6234.236910838831,1250.1711706881028,1228.5166243343447,1,High Risk (Failure)
66.72394802742485,4265.6676511274,27880.585113638255,0.3814912932422273,52612.93611906698,17579.958192124577,3785.021709750458,29882.35576875753,22419.11339717693,282.3101266902517,11.956828479289117,19.954054879505165,9188.481861265242,1666.7767935366435,1050.641067963404,1,High Risk (Failure)
118.63384557942366,15248.582525451795,17081.971096008987,0.647578490806859,57154.74313591885,11888.895384297652,2990.9203274061756,13665.561968919688,64078.23917470739,283.83472164902804,11.498583601592355,21.51824796894172,5701.740496194143,648.8975758537956,1433.6897048986452,1,High Risk (Failure)
111.67303567059935,12287.049940079725,12070.613429921283,0.931224759178898,24693.48173679631,26765.58908528283,14983.428833573385,49922.87570925948,40822.78191561662,263.4981302292656,10.963124002125772,22.396651032305215,8706.861380458278,629.612805215876,1047.040056942646,1,High Risk (Failure)
197.61958355027272,27922.804007442963,7699.018365828827,0.7346544978530639,23429.337886585963,7364.362155207908,5408.462613699593,61298.2475813074,44615.6460983499,294.7951062573395,11.344008125992431,24.032380533022835,3455.7120449247445,528.665244204909,1318.8968312176394,1,High Risk (Failure)
109.24334484690385,3697.8808674859756,26044.937016973505,0.2061648446312071,49874.579227270864,6404.154113621467,10542.78543102045,27102.245503744896,50629.70377999406,273.8241619079672,11.073269963976527,24.985645356990098,9580.000200406903,731.5843437164469,506.9940391233536,0,Low Risk (No Failure)
184.03752622384897,2616.3302685406616,27478.260104723133,0.06460464808632094,38344.28756106786,7947.151657200128,7069.484322362038,61396.58831724346,67854.53239223006,108.54963881857785,8.839970129564932,19.85125655759423,3434.3915648948728,768.5431137117366,848.4457130493547,0,Low Risk (No Failure)
114.39549820691971,16237.527950979626,21706.71914819283,0.5354997154223736,50250.813005591,22639.66450161287,11950.567534384938,40778.408368617514,15312.783526842755,287.08963100040353,8.254657141069892,23.785834648259396,3841.511259695518,1623.6943604927997,1183.0289316541466,0,Low Risk (No Failure)
81.4125380799509,9151.142677908281,21729.83742867249,0.776598482196688,42442.2021949107,15137.921095659869,7801.978547569433,50999.940689397095,42011.422754469124,170.17390069597218,11.309289853292572,23.040393736581652,4115.825861192118,968.5131517670682,503.6980855153785,1,High Risk (Failure)
174.8156425053082,23924.894618475784,25361.397086460616,0.3644268113352511,23256.744196201038,7657.427882792945,12211.609609666715,20534.611915512905,22765.64647732961,297.90546824257814,9.781204398718037,22.81473422439561,3252.8761837340494,1943.3387987561468,1182.1927355252346,1,High Risk (Failure)
71.14258370598492,26718.114644599817,31382.51930793188,0.2383924421890098,37017.26339892378,17572.2014196417,5650.491679521679,53447.324208742495,49066.22016519744,179.6411513930443,8.165428768935392,18.260712411844025,5046.14131540824,844.3444799740515,1164.5629779470778,1,High Risk (Failure)
141.98285131713703,20904.631590781708,6859.251079685581,0.5285151711597604,38097.976217392286,7533.060409478976,1095.1289835879975,14441.702582398662,39102.31654926068,105.17681396949712,8.281312274060081,22.841251719153206,6896.944582728383,1631.8066283827827,1345.5576979362868,0,Low Risk (No Failure)
202.76839970234437,18781.940461550395,28154.293288099867,0.21581118641865815,55056.41895659495,28494.573660716003,2517.9454376199415,20003.415583542763,64857.442532050976,272.82256150475166,10.798825711802149,22.94315992436066,3123.5802090473026,1491.3353638649537,879.3403012413717,1,High Risk (Failure)
205.44520330650255,5763.8430342219135,34441.31312978585,0.25435953880638185,49808.27635220824,10819.14910733383,10335.147387526746,45457.20818322307,32176.383413453248,275.948914560311,11.380575017849644,24.876589055316952,6895.239730720789,1877.6416358448016,1299.553807144939,1,High Risk (Failure)
182.17692706556173,9276.717985439253,23276.67988308064,0.8221829058167339,40114.87985474358,29959.622000202715,5483.990017067538,44101.09570156125,62725.16467075217,177.83667702262574,8.64591810775593,20.525364039307828,5871.09157235625,1676.2394785329743,561.772223461511,1,High Risk (Failure)
61.44866585285936,15350.025242021185,32271.22823942708,0.31332783215131554,50618.89820242749,15151.546876310102,12761.386219347698,26134.681071883584,11500.418220154335,264.12195163044714,10.129261661010482,22.70066088923364,8755.812978392034,1426.497495299602,1235.9417622528003,0,Low Risk (No Failure)
218.79736034534002,3476.672044435341,19450.99514037023,0.3484953482460029,54621.9232191123,13974.947914240358,10886.338605152609,61323.614814027125,52179.59105338602,263.47789771939483,10.217984822369345,21.56980674634477,4089.019937398608,1445.2071287248677,996.9804599549507,1,High Risk (Failure)
196.1818674426971,21217.82137442016,6214.634729849133,0.19668643412686138,52086.72323399511,13090.324193786404,10485.578424313751,14015.383751397523,25750.29215324291,258.7424500745341,9.016783984588598,24.874191884393284,6327.537117641208,1569.0876928279574,1118.8314497587253,1,High Risk (Failure)
130.26158537123496,2131.1862021217257,11742.501145320726,0.33965184501695544,26719.585504057613,20430.546479186545,4685.861559565309,16068.536052713494,22803.214763374264,144.49063375511363,9.767918607363857,20.443909502633435,9859.652950650527,656.5063755753672,1400.8032057318119,1,High Risk (Failure)
126.94232534053336,29386.824440168803,32444.479272949422,0.15226013011187667,47568.7343685432,25963.966068653517,10168.689714908303,12216.681157099787,15148.988240226005,231.1599418639826,9.969706876354039,20.50533134012186,8713.55437684122,1238.7043624252938,620.005431549072,0,Low Risk (No Failure)
115.34959880751407,8936.325162722273,33389.26697625162,0.35997351817666945,52327.168641826036,9901.358786367557,2909.2217337281063,53027.06923675829,63747.4601546129,116.87872660237622,10.465874233370265,19.468814983874182,5272.614753047999,1841.2500873679435,532.9299963195601,1,High Risk (Failure)
194.15869341488397,7774.661929050869,11074.3569242414,0.7236793680928076,55251.5125014069,17748.862650065355,12223.440967891287,59741.02803768731,35507.32805208098,102.15055344061315,9.128376817244273,22.60833953745927,6592.823881394745,638.2714850011878,1061.3454773238284,0,Low Risk (No Failure)
117.10175602737763,7988.89148188162,12069.269959990608,0.06569042934064673,53188.72790788767,24515.61362909255,9119.563107116144,19546.302349158945,47251.67118385962,233.56457084772595,8.777269694524898,19.00670613358495,8388.843032761215,649.6007672624268,1435.530739013529,0,Low Risk (No Failure)
163.3315818058375,20894.702494140838,21065.776480867986,0.16107417806946867,58932.141226482854,13234.752295431721,1359.5236940264867,15372.10582737032,28069.390058602352,122.78501127755995,9.121336845361675,21.25883249476276,7069.014586816771,557.2739093274603,535.6493300798243,1,High Risk (Failure)
121.49226354554906,10371.2113011031,17246.654677646962,0.2649071934978201,26043.47664393577,23488.90937748261,8584.22601067518,24727.49670402696,19959.61011752978,193.98722676885444,11.495146151477217,19.391223626977087,9904.096504714546,1485.3747752734262,777.2796517532524,1,High Risk (Failure)
183.70269982698744,1969.3694597034273,9747.177880226405,0.14052372418008585,24990.474042344442,21164.698763220647,13989.089333087528,60782.08320745439,50249.78982986516,289.84537668542293,11.462793363764376,20.57396317922894,8806.048887631487,1847.9578258308234,629.4160065196886,1,High Risk (Failure)
146.68175428281012,6491.465397964021,5040.009184723761,0.4610533305271882,52973.34261908882,23075.22437500256,7246.110954919632,59943.21001298224,19014.841875347567,223.27690003984532,11.476824811841006,20.608082087201343,3357.6675035706,696.8182250016141,627.9118869243133,0,Low Risk (No Failure)
76.65737311753182,29873.710123556128,23006.07641277742,0.18048300806813267,37562.449560219786,6709.271982764745,5599.496677397275,29374.119387200244,19077.627741723438,168.8037300307779,11.222770264285469,22.865018414385744,4522.980149888664,860.1471715709915,1353.9629741688836,1,High Risk (Failure)
145.1381576424505,6458.733793302322,16049.311462601952,0.6779980152425845,42024.58075504663,15596.837652267419,9716.95093783656,25826.68189343809,18062.34559366493,200.89699819754918,8.798317014718311,22.530407784698795,7404.223006996487,1431.0289730607892,1347.147313331283,1,High Risk (Failure)
167.6947409457947,16011.529134993601,22565.42127443239,0.3458261637856792,33268.26553528152,23401.71730057455,11393.996252192846,12328.181591463104,42397.56591268337,118.03614148417883,8.613343123674081,21.966137566279247,5069.122104189055,1603.9979924840131,544.4327156610601,0,Low Risk (No Failure)
100.1870828077442,22907.68090295185,30144.47496129071,0.4805313431584083,17761.78184160655,12577.594345048683,11832.134992882271,62049.3127219193,12288.236368470285,164.8820991952582,8.644258053216902,21.200093169402365,6933.259885545822,714.6825929156639,1326.6769757194238,0,Low Risk (No Failure)
150.22286736886437,11536.409791501292,14849.26131073736,0.2396521330160949,58678.85610374496,15720.700242672148,7744.4171185746445,46325.71955296397,16942.88970062051,245.15310712571406,9.553488954118809,22.48310360919512,4615.914599509768,968.694296069742,1425.1952084247039,0,Low Risk (No Failure)
137.78087763438785,24460.35473879755,30437.72486835233,0.5508163254507054,31494.257448403023,25924.711536191156,10352.432841637929,19742.435881643876,50252.32692880991,170.8201447325084,11.930650881999712,23.415894240453,5214.275892853848,1550.5289439331382,803.6138945232417,0,Low Risk (No Failure)
148.8135918883658,15260.400347550694,15108.943635404894,0.7041223542324346,44712.27522429771,5883.770526017355,14106.733214753067,34455.971810921284,62737.12738492673,183.54962386362868,9.876547900751671,22.60109022313003,7202.325649140436,882.5012748908432,760.3308639257339,1,High Risk (Failure)
157.07707595478982,1007.0450986008692,5670.40365280572,0.18164323655771608,30764.484244780004,15754.848865031641,9008.22598078016,34330.46750461243,46234.23225252339,169.81990741810978,9.55138205468496,21.03701332487026,7716.323092454374,1716.3400481288072,1296.4696911098172,0,Low Risk (No Failure)
156.81432296648615,23855.44925841135,17843.841521304254,0.8440563327871357,59029.54007950677,28591.500645086842,9479.494107171857,44719.04370491387,16964.062262220592,109.23834791221934,11.443120644215202,19.53732055025101,8937.673548307532,1185.9813698650958,831.2637958482837,0,Low Risk (No Failure)
169.32140218553536,1522.841259808455,21895.942773444836,0.20570429497656983,46579.90967193989,7979.006629871856,10766.132725433452,12573.261220439701,63651.26491834141,116.74288171396105,9.0015027388247,22.118945335877882,4105.0666730372095,523.1395242501967,1406.4432242122314,1,High Risk (Failure)
147.14093937714173,23900.534799989917,21731.142857200135,0.7713801887202277,50064.30331207028,26300.915432044036,14816.203258883957,17580.01848531158,66722.92823214736,264.52684619776767,11.197704418702775,21.37625996262658,3136.619442837268,1682.0411305861371,1280.5288456318467,0,Low Risk (No Failure)
213.70031608211195,10916.100313667072,6087.646863245822,0.11185994634632246,43697.01407490211,6414.771190054143,8203.881177026768,31614.231328710113,49376.624457355785,270.7769753970864,8.94529033525569,18.061496643498295,9581.868283510168,1323.9547198287883,1488.0494294094651,1,High Risk (Failure)
184.77615822293598,2903.1565571567094,21901.51221998497,0.9277710984068192,43520.46895082813,13555.65772318169,8336.355364667212,24337.834036523003,27134.10254823736,162.40767026637894,11.924320756125894,18.184909575935343,7321.03968158723,1724.0644131214322,672.9244939274702,1,High Risk (Failure)
62.301031371533604,5346.021167709997,27640.475626044237,0.9627865088280702,40270.90814817154,19502.29843724046,8345.045266879275,67859.95605334795,26135.741560468334,179.4648060685575,10.68205762847788,23.143270603938355,9968.32309353244,1025.9047186872833,517.2684088777016,0,Low Risk (No Failure)
146.08363285822446,12245.165527362742,5893.423619627628,0.32969488670505176,40837.04998941984,23347.193527246858,1145.4978356189197,13326.642413915504,40104.379462422025,136.82475902119762,9.476269130970802,19.676614404131445,7281.410665639612,1442.7375535826827,506.690394649452,0,Low Risk (No Failure)
131.06934510053864,4087.971135256485,10956.572106112788,0.15816989040942608,28677.835799776865,5571.948630547587,10190.691773623392,41835.96510644575,34316.14048120944,175.72417470799132,9.02093859171349,19.87786344675311,3475.0045266240177,1946.3613403587296,899.8481982359983,0,Low Risk (No Failure)
111.26420578243439,17621.328191456123,30108.165344298686,0.8083263989215644,33729.88563409321,24935.820541344005,1043.3725120945646,21994.842027597846,38653.0068986828,181.5502273979734,11.7044919438231,23.76922994349313,5277.5447108603385,1844.6376942667646,1378.2284458278486,0,Low Risk (No Failure)
199.53982543106423,24058.198193275017,15226.296187518095,0.21046221714200342,50206.46078180218,13682.208974908925,13489.02720428692,48801.1436417321,33259.76339832439,221.39693488427304,8.702600080764125,21.496473075724275,4968.849065088695,677.6757965369502,804.6500781187488,1,High Risk (Failure)
138.02673097940232,19605.810756058432,32900.201594994985,0.5231922536086928,42688.23535898431,29727.409436423066,14549.567287810125,61801.17633800493,38221.34417637722,214.58143787367328,11.11550139672726,21.449142718565156,8839.74088509367,691.149216354411,1387.3978760864647,1,High Risk (Failure)
136.9824162967708,9475.21974544225,16121.319711133521,0.4960328899414148,43202.1786046732,23878.16973335328,10021.094226898613,68896.93793500494,36682.773484366146,287.13964152112516,10.243440500587973,19.944775602281627,6824.813258039643,534.484109909238,836.1859583687223,1,High Risk (Failure)
116.75656907683403,23470.89366327672,9550.008810728608,0.15087804682460448,57760.10725170446,10537.371308221012,6756.0223399070555,37412.471319462624,33377.58018643805,171.0620733551611,11.311295540167615,22.514467559301814,8757.735640200506,1910.100619846458,725.3599994618693,0,Low Risk (No Failure)
140.94218862151456,28998.010403418015,29580.01256896583,0.19982092034136412,42711.850490544166,14153.836567931914,8028.264222678748,28945.112088341393,55337.15621274523,185.5700301409245,10.096341041950774,19.495181729312527,5015.197290212537,1334.5563621480596,699.1221304301775,1,High Risk (Failure)
149.70561510658735,13386.26094616069,7324.573923514743,0.16381366359431537,15013.818376518997,19147.424083875012,4014.611670048561,55537.54366696113,45943.75079866955,256.7166009921507,11.64164169231244,18.489588452778584,9203.74881368348,603.9622538514479,557.1953083569597,1,High Risk (Failure)
218.39363718239125,8704.881381121642,22676.351703578614,0.43248337587265984,59163.46441655576,18437.98565670176,13872.102264403798,34137.29656983677,44942.956764002236,190.58615966781292,9.85704245369817,21.65294719921507,4085.8732560142685,1876.0561870980573,518.2764641413103,1,High Risk (Failure)
94.30503727890633,16365.182779900038,11180.522128741282,0.8156159153470276,43973.84557546936,21632.03483141399,11724.112893257081,59067.296186821026,55871.08999484988,114.74541688947733,8.890584257846118,18.765085364453526,8858.388728046939,1043.5026143245523,1090.5437543623125,0,Low Risk (No Failure)
116.3799914575447,19247.356597240472,21417.122836378505,0.589094675816581,37000.202240455794,12637.218885008742,6829.72862818064,58218.99395755327,69215.42563079142,147.57439466728005,8.195608709753749,23.95945749493928,9000.522939822982,1048.2300523445433,1391.8520210413985,1,High Risk (Failure)
155.73719748764142,4190.513912698764,7470.589710102744,0.7981250480064295,31416.94689978823,6848.6823621216345,4247.025944495517,60627.79411635285,41359.55937978249,100.10556873716648,10.250745952133206,18.41297685411764,9144.106194178123,1763.8082002586366,996.4673185690524,1,High Risk (Failure)
121.30216451991959,19053.862723406168,30762.537775726756,0.8103031373334708,58677.93805590806,11533.6728296084,5686.426722026753,10360.45962029663,13640.088422691028,126.6799700723503,10.384259606632213,20.766985063503597,6235.596649421187,586.4384594044338,1353.3321828885137,1,High Risk (Failure)
218.68959221589816,15789.567300091416,16938.718318873078,0.23009079204003957,23122.82039299787,11517.288703827846,7732.317701601795,22159.106277233906,65958.65477898903,276.5098078431637,10.807055566859969,24.337012233676862,7427.824828136062,953.4222495729362,787.8146910440121,1,High Risk (Failure)
71.09780814002647,5943.41283586762,23189.50842123596,0.40164517721204185,31877.65248508978,26386.95850400784,12444.835180673674,63616.84599222605,10210.510280286602,182.79787860764102,9.928414533305851,24.10713906910373,4613.421037903192,1119.8021862852952,611.5207855972044,1,High Risk (Failure)
210.4806324607044,9386.169361836852,14133.30346971122,0.767740809852709,23550.418267406352,24696.106589925406,3426.094810432932,14356.805882104243,38936.68164136392,226.79399122820342,10.648193018216652,22.8447643917542,3756.3325188219405,1423.1469325017351,1160.803875832,0,Low Risk (No Failure)
113.28030608931167,3953.5706891290993,5750.123385517763,0.5725654538976889,50685.57261957144,6970.699927755029,4138.128926500229,49514.752621654414,30765.32343157079,221.16117485192373,10.945549123495258,22.988225691326534,9162.509256914902,1904.2337648259331,753.0367091228258,1,High Risk (Failure)
152.99811542761796,12758.678613582135,19336.719828372487,0.7075384896146737,44849.30296535164,18409.532144435907,3726.3159840413605,62774.648442059624,64390.45415817502,127.26034468516194,10.298069041497019,18.616553510016015,7292.580762174624,739.3905393469315,556.2845942202683,1,High Risk (Failure)
64.8619295514939,27292.945611607967,34578.80906346049,0.0747966479969393,45697.957516477734,23239.27742142688,5134.933686872442,54563.79260567712,68090.7698184674,141.56426745238764,11.514744617525642,23.250938883987523,4047.314449165149,1098.5822316094536,1277.3602406366274,1,High Risk (Failure)
82.41344243784384,17172.97204437813,25072.400505868496,0.5738240691889402,38501.71820380572,11560.749626432953,10181.581274975799,45125.72970790476,58343.01704301445,209.10819042668663,9.074897818399235,22.660503564071373,5924.783496847373,1105.9877768971746,825.1298217362385,1,High Risk (Failure)
125.89454626356297,28425.73814478971,27862.14960319177,0.8548341512373361,38234.21949821031,9045.801689655535,3874.250717503341,52890.88447160442,43593.74864779479,132.285305658569,9.181799232625966,22.89333583239279,4259.349839196649,1316.7583257968759,1080.3237744050352,1,High Risk (Failure)
150.25184461336283,4435.389447739974,7517.076254845941,0.3557607149943026,33600.401886696694,22747.036165216752,5527.566068945516,47367.3668501904,49189.233711033165,143.6861249297865,10.799771659773093,20.886175192875942,3076.8730769762783,557.8744242144875,849.0496514796043,1,High Risk (Failure)
104.21105735453658,3870.0900788524978,25218.3334721907,0.9503245389672733,48750.99856745013,14734.029112444618,11194.66421373109,61432.08081237449,29774.804097924432,274.37442385387544,10.28128170179201,24.871771859644745,3515.599616308453,1376.9769280265466,1165.391811814397,0,Low Risk (No Failure)
153.39417403701822,13795.660403659787,18421.394679142024,0.23903594314980614,46031.87806474799,6611.813616658777,2949.083127091666,51098.04618317232,13578.02694384376,115.35442433065009,9.21353987980449,21.234102354804307,9409.44415051981,1858.0962809308025,651.6121684666468,0,Low Risk (No Failure)
107.99073116432362,24319.16813577282,19703.34429909366,0.7877087308864188,45905.503576127325,9515.062657003462,6234.824381059934,50800.15549190606,68766.42950987906,184.41055753897854,8.03344902551828,22.99977975001389,3663.3058062765967,1941.1490462481647,529.8653592192142,0,Low Risk (No Failure)
107.44569300602484,14466.157246582108,34795.12368794998,0.7915410063332002,54906.44395467307,15716.33044630671,6110.198434028879,21577.671911911486,40214.4858062571,103.99377372063377,10.213332715615287,22.355717899213506,4551.892926083154,1831.1790525068213,1269.319120560229,1,High Risk (Failure)
215.17136721256716,9113.240995724183,34696.76486719624,0.34515746413598014,38408.07308543343,29105.648896918767,10929.740866095879,40191.87623530004,55653.62632665788,273.9248978289312,11.012528596472013,19.533742489841654,9089.550314948974,1718.3657663048273,669.29145635437,1,High Risk (Failure)
126.78316517266367,16728.40956427732,18338.167977083027,0.5527057661628776,27091.79790165151,6290.208853763205,8238.28603509846,47544.86672325225,54860.97472307074,177.61799431161143,9.248162777497331,18.276907114157734,4255.034644350948,1570.336306357263,748.0125830891005,0,Low Risk (No Failure)
183.64342714641265,6109.637778763178,30310.051262583227,0.6180508083353723,41901.962036455574,15389.617518615143,3091.848876757791,49809.073906537684,30120.428684097496,243.1466227372105,11.12901068750723,21.722953763548496,5633.653647732878,1461.7433090648046,611.8102934641792,0,Low Risk (No Failure)
77.14752181436417,6343.210895607553,15920.82407643699,0.40724641726207056,21046.632625141065,18564.276230095347,8709.837491735343,25315.85547975498,16674.50864508256,122.31982114451654,11.070141715841341,23.63071715871704,8886.000325501485,1443.3233277990164,1252.2359815777422,1,High Risk (Failure)
100.48421454724051,12389.318312502599,19210.733968721015,0.4479420112823861,47949.20450787074,9950.823136555708,2533.3520286234216,45343.920297850076,54556.47814028713,196.2292302829346,8.12855625281374,18.63711890346857,4093.183894282713,1009.3927084231975,745.0537004781678,0,Low Risk (No Failure)
213.26945936908328,19116.319412791632,21371.090480988452,0.31137633690532385,39182.06345611684,22388.68961038823,3124.2644234029253,35111.682806067525,52294.74210607978,218.42805136728694,9.42086966260359,20.081148093362124,5335.54066739617,1538.207824649727,1176.4203281364858,1,High Risk (Failure)
149.6705009568704,6115.945402408699,22663.835875406887,0.4572608045918206,26860.375013348283,10032.861273290884,9358.861062435126,31335.997740401865,60031.93855651261,251.2659957121229,9.621862323937552,19.108362538776856,4415.70645869235,1352.0903969175824,845.9310467375482,1,High Risk (Failure)
179.77739337309316,16949.390605132063,8113.457845300156,0.9029767236174566,54860.20610638327,19148.191113633264,14507.006141300519,42348.93380364096,20594.10393514354,267.83976571133803,8.56263822992383,22.135748073422928,6931.301088631961,558.9241143807882,1362.4847188897693,0,Low Risk (No Failure)
189.5799113367416,4000.776845750955,21142.386286221627,0.0442954309969924,35183.20682482043,8737.657746844925,8823.001576814542,25825.650739532968,69432.1491280698,156.7873807065501,11.121223025131716,23.838266557365593,3135.1173913170614,1364.9721913726366,1318.7779165950888,1,High Risk (Failure)
136.66910042075696,3321.8386733400025,31534.896043815905,0.7139554232420516,20857.361724495095,23216.05472960154,14408.153870231461,21529.875095571108,10785.15303056861,180.27810403186197,9.881859047352888,23.915560448880697,5577.714769595223,1030.7559464500698,1140.1430447403309,1,High Risk (Failure)
134.99090556719523,1996.9288922000312,27927.368625571406,0.1304394545333465,20620.677508222532,6536.197901106473,5955.483835293773,53580.18806672713,69558.2905508474,183.20334878304885,9.840902578599477,21.332098713418052,6551.214768546824,944.2225510602965,1164.9696553528436,1,High Risk (Failure)
61.93932394302293,9824.920162805065,27102.506627396822,0.19323599148486714,48797.91074095943,13727.343292061538,6467.643762559064,28672.802308221068,37282.00402847065,157.44447344898302,11.110999665769974,21.91322397976136,6556.8012910944435,1039.9753571354572,1210.0453452462075,1,High Risk (Failure)
79.28934662459044,23053.473582005936,11347.18419467907,0.3931770315876004,19814.99871676197,23760.77122084658,9276.132101511259,45833.46416500066,29135.743168957124,167.315208347478,11.93174054008944,24.67620714343268,3502.979207175169,1694.4213407947796,984.9560359643797,1,High Risk (Failure)
103.95261040766272,21554.203338023985,23339.165511661602,0.8287442657284769,33018.21317445167,17865.18275588654,10171.112724091432,25819.61313637322,47089.42605909856,150.84904100728485,11.089294868506347,21.66061729002224,3376.6532967025587,1202.4550058954183,804.2534234221239,1,High Risk (Failure)
87.18193171504916,15161.712477125704,28201.76673886317,0.35031752587232856,21594.144785508302,15269.924963608679,1493.8943345140892,52467.596814505174,44230.649938565,100.64361682233675,11.531812013011077,20.99541494142882,6462.465019793468,1914.1216794305067,1204.7221577002279,0,Low Risk (No Failure)
189.13134461867247,2119.1552962058813,34945.93637863573,0.9612347038921889,28678.662418695247,10187.865631255756,11134.401761561921,57950.79593205857,65272.516262243356,222.7172829090502,9.60918439710771,21.282103348836273,3799.3305250705657,1030.512858669088,605.9167347057709,1,High Risk (Failure)
200.56248980821567,19778.07407153473,34956.80745455206,0.2849682775773116,44188.681611222986,14217.360293631813,7976.971292208842,60641.940985150475,43389.478449806455,148.68136520822353,11.44462841368767,22.484476993594047,4757.6911096061385,1517.0861241528496,1223.470152106802,1,High Risk (Failure)
114.21770389420026,19542.20622216884,16487.49221989322,0.7531877038481741,53111.55381494079,7184.501562987273,4127.166723210418,37260.803042151456,38708.198605723024,293.8716115695827,8.076146086759247,20.971070536250807,6855.9301351276235,1069.0182211955712,686.713193258056,1,High Risk (Failure)
123.2248475955688,15003.938661359362,27397.000214101787,0.49145414356805195,22956.781100090677,16539.624976553663,10762.456751424055,50739.66881472031,45689.49256391448,262.69907300740886,9.682171121029272,21.564501072340615,6141.723956403928,1489.2996189104272,1235.1427709203413,0,Low Risk (No Failure)
145.93704669096763,20581.69428929909,29808.470752523324,0.23704150891868003,44024.20179239138,24623.483712114205,9021.708398287608,42006.44097123616,40518.93169696015,275.0556899581834,8.871931685222354,18.680434967481112,4372.569682636879,1121.7392208544065,1388.3725313109967,1,High Risk (Failure)
219.46189393182487,21057.658657226228,33593.332558457914,0.9112451557542998,33897.02273121461,14577.604171105802,4768.1892865599875,57939.52531200075,18111.170923211692,108.2847733514799,9.68313207170603,22.54985526078847,9314.122331738183,734.487260471421,762.456352171836,1,High Risk (Failure)
149.2597881056117,26421.345446215542,30095.605833427366,0.8827368389822446,50074.37735115044,17384.49543214951,4051.6805193276823,39146.83650004247,18749.150791456108,293.16341476663405,11.539098987824538,24.225763231615915,6917.127887894534,1430.5359241625758,1179.3795737963396,0,Low Risk (No Failure)
191.01908328327545,13219.931295201794,20426.215234318588,0.9885030699282062,21782.898792417196,17450.005995943633,6357.121872116648,33550.68196093396,25843.344322734665,177.16265218820547,8.669610845237944,18.872231391735756,7825.539930741342,1624.1390229350447,1101.8262583796168,0,Low Risk (No Failure)
219.0622977953868,6790.422403178754,14641.098672226111,0.18194140174843365,30984.747635920183,22846.057001245663,7591.801321476675,69163.99950039433,52414.966496966685,175.66873807363007,8.26999608130531,22.551489207289148,6894.54353099672,1416.567435767715,1461.0909004874732,1,High Risk (Failure)
165.03657717304043,5539.347189056495,8001.940146995999,0.13118510392079863,58874.57093709137,14816.127045905207,12138.194994949687,56055.00805256975,49014.930581011286,231.7303711713055,11.741286903454185,20.194368986680033,5993.339141692992,1768.2667077254507,1118.5506407577827,1,High Risk (Failure)
119.2253920408711,27387.974586631837,14545.256285261094,0.954617371504054,50061.176555891994,15261.047258477907,14435.481276969582,49487.76828923274,63797.18726275931,298.32180344451024,10.864928524088539,19.185265850295316,8125.289982908123,1665.0996199306771,520.8627999441671,1,High Risk (Failure)
178.96132100665724,11796.905858618386,27854.157648648572,0.3881810010456791,21135.920779984088,16786.40852201994,4882.5094143655915,51134.2630229737,65195.68976357276,157.60349281331887,10.579195082954831,24.894462148503102,9816.047679056599,1842.1867327164732,810.0769213023676,1,High Risk (Failure)
193.6768361187511,16366.393140027976,27433.299148163023,0.7733235527040767,21989.848529318464,8737.58288950571,12576.124553777712,23217.9155090345,37693.211476404256,269.4856162161914,10.118858332047925,21.522181834114395,9432.778236661497,1674.4587429987832,844.0155024278063,1,High Risk (Failure)
167.81422372320074,1884.3998877298795,28961.137215279166,0.4105329264558768,57423.53640752848,19063.257438909546,1404.7398129873916,25450.19048226189,65447.00822716649,243.81265855786432,10.674042467496657,21.58131726222357,5561.339360221411,1702.3742369742251,642.5307696471057,0,Low Risk (No Failure)
100.1428873105764,14024.579003977273,32440.87230563644,0.6497328487573907,54640.89442459953,19723.544601923917,4942.046106351976,27365.292601875368,55294.60880797031,171.89892984454053,9.175227655066703,21.968927788180654,5604.369073035799,1525.2398174927291,969.5960537007154,0,Low Risk (No Failure)
128.7889723824237,18521.04420700516,13544.011227486526,0.6816984700828346,54086.511370245076,15112.078629944384,9794.015684903754,68761.76321135764,18457.8461561286,141.59222638084066,11.415380386335888,18.752129085888914,8613.865724755404,1317.3248163078551,714.6215511911739,1,High Risk (Failure)
121.42259541971383,20554.513637300715,31314.64701113583,0.6409713241221375,29029.382324345832,7409.776812360837,2149.3261722708376,27085.0648194076,69501.26425936753,228.4139999197459,11.834499847071168,22.406646825842735,9850.028869164576,990.6584405376168,1220.2532954131516,1,High Risk (Failure)
217.96418069039112,4305.010726457994,27193.891158082974,0.4638217187676631,58605.08433639688,14752.911932356703,3007.1843637344955,39138.9119502396,59964.02714695068,102.07631466050924,9.314098792765611,24.106614232784374,9997.829141702277,1746.1189782588274,772.5429592579276,1,High Risk (Failure)
212.08525135270543,28326.727199134995,31607.97188951516,0.9452962449373846,55032.95561051657,14079.84481530825,5807.690240471325,63203.02933687908,66463.4145953038,212.45044467193844,8.369195366835687,21.019294306973073,9056.470769694592,1506.0172691825524,642.0285248490736,0,Low Risk (No Failure)
61.72977338163142,9956.966077857433,15653.99645947372,0.09972360006606873,52617.54918348647,20491.242037957876,7865.192214984091,29068.067239400527,53737.118750890986,103.57738832138006,11.779342406223538,18.662930725018153,3579.929587748934,1284.166412931952,986.0693972099104,0,Low Risk (No Failure)
162.25919005048007,8780.328812405407,5232.789450122735,0.44393364970311255,40122.993589683756,7918.8509002909705,14099.656950130926,11509.629393174531,22883.78093372291,110.89504820500431,8.667498538634648,23.677366282370873,8360.129186547301,1303.5278609410582,1309.789054083428,1,High Risk (Failure)
125.1052737156593,3045.9518475869427,25591.1669831793,0.16928621027278945,31495.27739421706,29978.426905412747,13727.877057795831,22655.744091136206,49235.54871206593,168.18666720453285,8.883349761125672,18.333232564111167,4480.349746004751,1629.1205943992277,1088.308882825149,1,High Risk (Failure)
202.46149133684258,7456.827821576776,29509.501424272083,0.9815517379172206,15076.726417601929,15635.882317762713,3614.508585568683,36702.46450345191,64876.2915633573,265.8908806801121,9.305706613114195,18.698136686664494,6299.657401095144,1659.8952819846293,537.4051890421981,0,Low Risk (No Failure)
133.23193682548703,18162.42932223645,32511.367704634282,0.9948498070617926,34563.82768079951,23500.18781931946,4432.610009017402,20407.749779076585,48074.60506462225,226.1454526117171,9.122830417300595,22.928974265999898,3511.2648671254074,763.6502505586288,545.3142972497186,1,High Risk (Failure)
91.13981387277951,8424.61401878388,34949.20791145964,0.5125839669342331,46329.98617521901,12392.727390124819,4091.8974311225516,29547.679585648308,47153.040796266105,288.9327501867889,8.541722199598265,23.517612112767114,6038.227855735273,844.2146717538731,1172.4085527127277,1,High Risk (Failure)
146.5270007976871,4844.648247049989,33825.66730354339,0.958554007949528,28408.85485559899,8014.158735541678,12345.080215664299,46842.906446291956,33140.49261604398,243.4650279529334,8.047990589872727,23.32521397793957,7346.270009759625,1415.094275335965,1334.788404580431,1,High Risk (Failure)
114.81457324978109,17644.88400754726,10884.180492016148,0.5298630908366776,39895.65920128302,10645.533863369721,8790.662008791298,26712.438145928943,42313.34964718696,236.26231449867245,8.233423223723605,20.341790434066912,3148.28028077675,1109.140694059146,625.8726633963113,0,Low Risk (No Failure)
159.87807934623874,20913.679739999756,5460.987522041699,0.03791694407363333,36185.97367211136,9530.707229594253,2534.31284393623,27819.014107298404,39514.38223362595,241.06299504436498,11.23706859156856,18.682313492499127,4705.4775527032525,594.3474765222498,869.7254883885569,1,High Risk (Failure)
106.63374615900702,18588.85453437335,23385.660846959567,0.8271787066580127,25911.11594863759,25712.164534740772,1789.9286558439126,31273.10037330772,51144.31809678575,292.34830998800055,11.223613531525235,24.27644239907408,6280.175216407431,1831.3713695546928,525.5329177014289,0,Low Risk (No Failure)
198.57624726045356,5213.294282627813,5779.4688117734095,0.7081959379725364,34205.817122842185,24501.56855864865,10855.704108151675,38441.55008366006,28363.836931216454,247.38906174725264,11.157507806301918,22.77308453234967,6869.521634399013,1546.5929972636982,1448.4522055753118,0,Low Risk (No Failure)
143.16383176896284,21108.624749442275,23362.379546115775,0.1725857940492721,52714.150201812816,23495.408359705252,14441.432268607328,39563.074068518064,58106.229470182945,118.58546800310086,8.591119487129887,19.2841704941073,4132.119671409465,1630.7328435702989,685.9129362492632,1,High Risk (Failure)
82.5957669397039,13132.528114435,10600.969546315182,0.33407889553381753,39347.30502737612,21391.275755553797,14696.138539856353,54623.30487884494,58178.398074868055,194.6611171456561,10.967521330782963,20.327204309098647,7128.357075086978,648.9008861238681,1306.4982548474418,0,Low Risk (No Failure)
84.53622449857284,8689.951494317313,28599.575482290402,0.798613015923451,17383.729866916558,26642.690138125894,3495.06272244046,39341.93543878305,44415.15987632862,145.48727782295265,8.546924266884636,23.697812251328706,6174.937561422822,1286.0380160294244,957.8061165360583,1,High Risk (Failure)
102.78432445720661,1430.82755271761,23041.286343294814,0.7511916364513858,21531.28619697633,6072.3977382769035,4653.563871741504,15291.919207243911,11724.238100086264,172.2619851640972,10.214853716493764,23.805388916049765,8174.800131743988,1126.2740543869463,1430.2828443194144,0,Low Risk (No Failure)
90.3800526553472,23981.243405038636,18718.993939906937,0.8986563837544456,16837.819932749477,14722.160929395104,7686.19548156139,62480.73423389052,27606.99821698822,178.69939621738547,10.41923179537852,19.442620001282698,7708.323639638038,1546.8474918209185,1327.925718217345,0,Low Risk (No Failure)
147.79740629865378,28482.899134864107,34279.493581773495,0.908153943227503,24931.658424790756,14520.897004570224,12549.36599903284,17655.904409976287,58605.16502349574,118.8031100587169,11.592181950774943,23.36900264635129,6455.415186653247,1964.1788203454535,548.7083134901995,1,High Risk (Failure)
88.32167748427949,4632.2857017900305,24839.118868606,0.5941593578796515,58381.273087459784,20177.04909802931,12066.55565344102,50343.812654202375,41013.2132152214,172.60700994134288,11.514992452731077,24.155085964091803,7341.1273664776945,1395.7457544304348,1174.1056211704158,1,High Risk (Failure)
187.39863208661896,24568.09825789769,12722.336905901164,0.012168345382033152,47719.62724711453,20050.78990353271,5792.849795383318,15728.434868951012,64544.63658582844,102.79110630464474,10.831689840365124,18.80455637017691,5137.978887945979,563.4909417930431,856.8690670710146,0,Low Risk (No Failure)
157.89296321651543,24695.961857075832,13913.514743835256,0.5793636173265473,47611.58158120225,7142.416578926484,9015.8144114793,25629.022911792883,30184.255546333683,141.55137711950366,10.292892180593228,24.571676255700396,4844.310123933099,1235.5424121219487,1063.5398858346953,0,Low Risk (No Failure)
181.77944592690528,14499.122200751282,5004.732337341702,0.5909999590859538,43227.448826843145,5442.329028419269,14500.711314788863,43784.75730114331,62736.18271909018,258.1043019784065,9.75600140209903,23.917653223759242,3246.448100500519,1182.30311587734,1006.0492113911283,1,High Risk (Failure)
178.06678293664407,28950.712174457232,5128.452735083109,0.8828853066451842,52833.57696090668,10907.192700988031,10156.901997914729,62256.94517919735,29240.600821044314,114.26345841084951,10.464408965380464,19.09859994145672,9093.09327353083,1036.2819242667388,619.8811728307579,0,Low Risk (No Failure)
168.4102978947652,13339.664118883442,20566.685949532442,0.16924759744289453,59494.739131280716,13317.132434391015,13468.635637735371,10950.1606627675,14637.582310845093,187.71751043251112,9.694958481484804,24.215116753161716,8085.4372330509605,1811.6262146938911,1462.8373633597625,1,High Risk (Failure)
95.94518362268266,7887.9674972277435,9367.032759575035,0.16293643896904608,20654.814732517763,15567.675563258363,8794.195013017807,55731.886329598536,35741.35554935357,229.90161265410228,11.771137723070623,18.015307572930407,7393.61752637171,1291.1816813468834,1492.7818195261157,0,Low Risk (No Failure)
200.2645764253352,25214.239784805908,27499.609531399256,0.3488667217951773,33422.05867966038,7767.389892392288,1098.994228732056,24887.50174253613,41761.43364963718,211.0975549884062,8.3151008714788,22.855756693849138,5992.889067449091,1302.5782743726957,692.7341264618517,1,High Risk (Failure)
119.54772083950354,16095.095475603921,6565.549758990885,0.6991388297007991,24328.07896173685,26628.020105200267,9424.33269678426,69079.95876245617,20767.47276756842,285.52187582588977,11.761295316713651,24.354668578296575,8221.487744768288,1570.0216733755562,1387.7324325438503,0,Low Risk (No Failure)
175.07228452356222,21798.261964355974,9208.550383639003,0.6369435754268788,25368.92994104811,15231.818216154603,12238.613354413501,33711.57999620373,12893.756019694369,195.8898307873972,10.922416713759603,20.123269711328163,4250.603805303045,1774.6575608229623,719.4225416233692,1,High Risk (Failure)
182.29654182982839,17583.034364298037,33004.183758426734,0.5712618284426194,33703.87049915236,25649.242370886717,10732.201460633129,63051.35366798695,46444.888019165046,156.92775743477324,9.553411743729178,24.879830040782767,5676.320056309287,981.2967950807372,1128.5986592300255,0,Low Risk (No Failure)
93.02740348169651,29002.685110045637,15184.817451798282,0.2593916074208559,48090.5394816391,23359.269706839845,12094.675867945214,44348.16125450285,22491.212140157157,282.0794245376552,9.119610168972969,22.45916458597569,5158.670651823051,1880.3576872754868,1198.3616211557878,1,High Risk (Failure)
163.94126384755435,7621.6063186897145,21256.4051982866,0.2404455636759093,50319.074039724976,13038.742700317802,4671.750676988449,56181.80505843211,39864.76976294464,199.18540455098724,8.712552227298819,23.292980510864034,6666.776767486639,1096.3107204214275,1323.8440395488335,1,High Risk (Failure)
97.23653582648829,8695.722260489974,8401.949820347261,0.8895964631361936,46084.049528205236,26339.75642361233,8961.98773333782,57734.494296191384,29839.18885350849,163.82774839184236,10.632963705214962,22.747659360494495,6164.1627326097605,1812.4270998800198,776.8717074772178,0,Low Risk (No Failure)
104.53895706602506,27377.107424678874,32457.556520922753,0.044332250802281425,15093.668055746411,23903.725298462596,14875.112194919979,59185.41047876193,57197.59987861596,129.62959577733275,9.286993435062065,18.20617136832328,9810.971207171318,1730.0355694352832,903.3404646428107,0,Low Risk (No Failure)
79.71959330120823,5314.860231625434,7307.319162060039,0.13046236141972611,18681.850705413213,24414.864740131856,10238.856663996252,21837.930393908304,25568.441551300686,253.57027016114836,11.943392348652374,19.996649681093004,4412.2478092677065,623.6341156192066,752.8457118861804,0,Low Risk (No Failure)
187.9865736597103,14925.321942594748,20409.580154639887,0.7500840749486621,54695.205923737,16433.67564872768,2336.542211116659,68612.0261778598,33551.88488069289,105.48378308038045,9.82454621251685,24.756678449221347,4266.574836718374,865.9540555675392,1422.7730055410107,1,High Risk (Failure)
218.45316860698372,5567.515894198311,21738.462243034413,0.2505015968847033,38414.33737097272,23775.297807786817,7879.96162113339,37214.261165380296,54252.59187691237,200.80618386127514,10.284629808549541,19.880742654930522,4250.071420369622,1730.2098785422709,965.5012915010835,0,Low Risk (No Failure)
216.9182949733487,7172.652495112366,27964.955012158985,0.4794462287370058,57855.81767815749,29533.717927178906,10321.924207380709,37575.10935100174,34870.19601164988,120.15231891267743,9.744373189309568,23.482022527885416,9253.69435507827,1158.8973995039928,1431.3882068447174,1,High Risk (Failure)
66.65165744806274,2688.8970937879812,33257.14918514987,0.24509691752863616,36827.370064296265,11280.784545361554,8358.625919108537,31324.639823984995,18636.897898893432,201.4888649076597,9.338333686504741,18.950765738486776,7304.967643743398,858.7825809021057,621.1457139340771,1,High Risk (Failure)
193.9265800388704,14805.644362380792,25434.130972171715,0.71983846135049,43848.88277818463,22024.4355673305,6394.687218950504,25065.092563662074,38569.472867754914,184.74256255119622,10.455980547583813,19.267615276860965,9491.286362778425,526.9508698249832,1287.9354187945044,1,High Risk (Failure)
66.28240826378564,19393.326950094583,27233.211248890424,0.44208301718934917,37105.555597434824,20721.68988237616,14766.93660583117,12386.751843863105,24572.540681658305,233.32546407184353,10.748272469059163,19.708633829879368,6111.40991566648,1969.811507314574,972.3930225297086,0,Low Risk (No Failure)
185.35512960788282,11189.322104992876,12161.024140969355,0.5954554827078453,33552.26351134709,10601.67617288031,6932.566577543319,32343.060274977528,61718.313650918775,128.98986716250337,11.008557016681136,23.529635532871453,6784.7399887345055,912.4379363358933,1291.5395251108257,0,Low Risk (No Failure)
130.847701846998,26617.141329641014,14429.446361740767,0.2513129587254437,28634.59187989596,6090.009132967906,2795.8835180574856,36270.9225665618,23173.863512485117,240.6036962232438,8.67747362767533,24.77526570745728,7260.8495393574685,732.5309244397956,1444.3024765674263,0,Low Risk (No Failure)
197.36103272824872,10328.211670447663,27738.13218818498,0.5307591771858249,27388.056109506186,15275.610016634817,8482.172246802922,27540.089504378735,41026.786423078825,107.04578197014436,10.861287406704736,18.183265473327026,6753.49816151877,844.7794005962074,1130.171707782424,0,Low Risk (No Failure)
67.31872541000206,21065.893534731167,8846.898419113224,0.9940619833831104,51391.88901693348,8719.214404760143,9819.161104922601,60847.469093444786,31362.810139405807,105.69136993839672,10.73233598777967,19.21137933787245,3905.356368781212,810.7343996568363,1494.5167553931824,1,High Risk (Failure)
117.9071985340584,14652.76491336851,28698.448093011153,0.6973257703179158,34805.215840954814,9712.094379190443,2980.2712404391978,68582.30272892889,63871.402254537075,125.53810346228865,11.19063955524731,21.986473593693322,4548.071360340481,1313.3851249956124,820.0499706223625,1,High Risk (Failure)
139.70079096768677,27413.052984788515,9695.236972413695,0.35789808554564795,22604.161614998025,21894.271304348786,2034.9580718131847,22641.480810765068,40635.20835973846,286.264172309856,10.76588969983091,22.56775244981595,4289.652706855434,1086.7478487844392,1201.7807245824324,0,Low Risk (No Failure)
69.98901236444485,8141.851288992024,30239.250544991057,0.0783884269702585,27485.564769957477,17758.40113604215,5340.193902113692,53477.62550942627,57359.863270595466,292.52220657213326,9.739208203689024,20.85052134803723,7047.161220353684,1009.6063384730364,987.3854202791492,0,Low Risk (No Failure)
67.3037992803814,19053.9324901803,17535.68559566394,0.7935212646403246,36712.47186895857,17835.054633140535,10566.463744327404,36270.008407360074,11033.990965352375,143.76596108525223,10.986184775342824,22.139735330397503,8494.065291633393,1793.081746002393,1480.6727341158385,1,High Risk (Failure)
104.06098788086696,3282.2325806665726,27527.85180550167,0.8151832322927528,51708.82143557017,10415.702189567011,5007.597613037085,59226.96741536129,10286.301905810666,144.63651141054655,8.346301435456285,24.996927570500972,8656.409089558296,1947.6689349588053,934.5551431526187,1,High Risk (Failure)
153.34268716257927,8819.270254248302,11599.73380690792,0.25054605893112825,37592.90619007054,9228.439833061846,3405.345724999836,62751.85811438314,34718.87236891179,140.53116240155788,9.189962553442143,20.041414352962775,9434.949146934337,1461.0320420555402,991.7535061400673,1,High Risk (Failure)
129.50453104105756,18527.040853401435,24048.545472829454,0.6227611923401886,44520.36488119131,20515.331098649345,8457.926925386073,50408.82525390128,53596.79675100905,260.445014694005,11.022671818414839,21.829050767785375,6720.1871341356455,1313.2744080490666,1399.781715136584,0,Low Risk (No Failure)
108.89667447843438,13066.0494418519,32796.713454255136,0.952765897153333,41382.45817888284,25692.779770335186,13482.194129260019,42687.9975673524,65176.490617226336,163.19861493937648,11.150980376273184,18.26838059265601,3906.317442980495,1482.6541106382035,1337.1813703234825,1,High Risk (Failure)
93.13212947373684,16939.046732075014,21589.267580523192,0.4814629176373849,38166.59805818874,28436.00437209814,10496.466503794085,37725.7880845092,36454.3032229798,203.17899019962795,10.008552055917828,18.57087054256156,6952.066190045207,713.8072062164663,740.2368219294348,1,High Risk (Failure)
87.31333812999682,17931.889751932446,21798.924414375295,0.7768809957583076,41462.1473255537,22391.040197889753,10823.684519884777,67582.8359880134,68937.75789875718,298.3540643975673,8.331002057102406,18.28771012910603,5728.251303207464,952.8103750621755,755.3924611149607,0,Low Risk (No Failure)
178.1755933011729,26258.060396013734,14637.655202417376,0.5144464281353097,22717.942034110925,10207.786941054364,4062.6040349816135,49996.40664843241,25410.411747238395,210.59995333135913,11.171527974145924,23.439791705064827,5934.09224361297,1805.9394513758884,1240.3279022224274,1,High Risk (Failure)
168.650656719302,15637.87538340071,20999.80528258809,0.06929264946664215,34102.33685372253,22842.32617864197,6182.099027661784,33005.53329032322,27575.828533433218,154.00683817999118,10.456140058405687,23.071875324887166,8662.141051107596,702.177713108004,748.4298995173838,0,Low Risk (No Failure)
92.51569457377397,12521.447495431265,11212.544746631313,0.00795418127854064,28056.913573198857,27011.4558341926,13477.637618914918,50254.636478878296,30728.631682721578,119.07573970123707,11.396512235141474,20.26975973394653,9209.919802092118,1513.4361986572735,924.0992759172939,1,High Risk (Failure)
67.05053785126103,16925.176442002085,14122.10854340771,0.4494367753080455,57609.844996857755,28321.876993503116,13034.644434408721,37850.55878751754,19620.38049039943,172.9333058949712,11.2916733794852,24.372372061508635,3087.523848026902,1769.0123298321707,1475.3657706232868,0,Low Risk (No Failure)
203.6848878319979,22087.721482464014,9231.793984768912,0.9246009904217126,21327.736059702776,29281.04582200878,2584.18095855207,33428.40843117937,22284.83703741758,299.5606843588357,10.379991053029665,22.41803186592459,3812.416100905049,1149.3350081529156,1360.3084567520755,1,High Risk (Failure)
210.5086792184545,13645.362249438793,30818.134710491286,0.6491892846364932,54914.44910423952,22660.216006887513,3141.9128636976375,69100.94069635842,53424.246695712995,169.68187147198825,10.879512235957169,19.361892526267155,4233.373763669609,1743.3782488330721,1351.9196171586427,1,High Risk (Failure)
124.51370130941164,3890.2537402265007,25485.117980866973,0.09309599854301709,31919.400108168236,9924.202577234413,12477.232642256968,33178.554046924204,45262.93827151334,106.89633234501181,9.704077619009546,22.876320342497344,6288.04174093418,1888.9801557757125,1213.5880820035563,0,Low Risk (No Failure)
145.03278627028885,16171.586344711608,6675.146626294231,0.43097084250528284,59746.60393650572,27607.68262676175,6924.943572454512,25439.797611006143,24231.58542068296,204.8641021218106,11.586912771985254,24.186917640581655,7224.95394229464,1100.944659951439,973.870782601706,0,Low Risk (No Failure)
212.45040272040097,10715.248528773178,7180.517330078692,0.22540211476880023,27224.309379713726,29801.582238478208,5636.229446148677,54139.71295297187,62881.76484142923,254.34847254088865,9.403362708538268,18.477382336435287,4175.754389914232,1619.1205800091932,589.7033870388713,0,Low Risk (No Failure)
147.81964824681597,23305.926216184038,26378.14052764199,0.5537558363378986,50047.05522011152,22533.711059363755,9270.969325564956,68592.00763160741,45796.5618999165,273.06599767174185,10.420252998342317,19.774189748979953,5092.763810946273,1169.4418373678136,1365.253433163994,0,Low Risk (No Failure)
135.86781265397204,27378.266342217386,15514.106069537838,0.4696483564026922,39802.407066314365,20182.726023703573,7426.231780937761,21726.121503476097,41667.48433292599,169.1877145693061,9.668927435463514,19.090725352083176,8751.809189537693,630.705901649869,860.1516171298604,1,High Risk (Failure)
79.13507935012828,2057.370473942935,11638.29773198552,0.2259783846551835,46810.54057540744,19061.76533821693,11636.16570705657,45456.692039902715,28070.723057572963,168.21921653149417,11.551591254203625,23.02646557528716,6580.997351821721,1319.1998207588758,683.4123280488884,1,High Risk (Failure)
132.82751867738503,13666.53791037627,20896.975274150227,0.5683550459866207,47670.33230948381,15651.974796607208,4723.241982569083,42579.50636848544,66213.03993103307,114.67993162702312,10.184231089172147,18.00879484966019,7660.268975356505,1046.8509141847699,1182.8776440757401,0,Low Risk (No Failure)
205.59090301670273,21028.059520358904,11051.136721593253,0.9897231325547149,19275.12428203188,12185.390427015504,14152.475970528083,59970.937016306954,41163.414156644154,153.24500506531194,10.43081842987084,19.87136251268712,6142.048897851924,974.5183590926263,1216.7733945262219,1,High Risk (Failure)
82.27925937881523,6554.118339454297,30428.341226469478,0.1158527770037645,16686.86762064031,20181.455134005173,9631.593893846719,28605.710474056777,28634.698727472787,253.55368620200173,8.991806339733266,21.255065280569646,4846.022320759936,1586.4243446898834,764.2157861530397,1,High Risk (Failure)
158.46732477133367,23459.84515900352,12183.943386034003,0.7512301889080821,43378.39712193734,12803.262168462858,9631.804675771122,48006.26913218311,49226.04319036024,278.9241278689052,9.915374178742237,23.093681103840787,3540.9198080665956,1623.282852371791,1276.9656454806623,0,Low Risk (No Failure)
219.62052758434504,8003.680578825777,31484.35396602112,0.8412141455110531,50879.13648389813,6048.864282265724,14601.562720319213,43689.07397993914,53825.30758076649,189.08332034026924,10.875033753927859,19.233833706579674,4917.454772231975,1209.8510681305922,684.1474556501548,0,Low Risk (No Failure)
122.052174386709,13796.95576575199,31371.860136567506,0.046777150190113304,20548.34098670615,21639.05390530303,10767.985284009368,31099.363350710773,48153.9349341308,109.22725175700738,9.34578491909071,22.409857281290506,3839.973184154361,1800.151381083806,1432.0129912766038,0,Low Risk (No Failure)
100.37035778162448,16391.767469256127,23447.302574058223,0.8335345671092572,19520.52104010787,11444.19230463935,4777.857411563948,45659.44673717298,22835.72766071662,287.7857138132145,10.397840959995657,22.61760659891852,6674.655896117271,1208.0568016300617,998.2888635729705,0,Low Risk (No Failure)
60.00491501526119,15417.460660603278,31186.19857301378,0.7155696354730722,25928.909273906982,15241.354313807924,3352.2904895853594,43433.60573786647,26234.07568514422,132.25163519430282,8.325727070932675,22.248290318071305,8974.321740100431,1760.704997771017,1434.8586434767483,0,Low Risk (No Failure)
149.44948559145635,21551.6248789997,21092.886376950733,0.17073207611304964,29450.49148761626,13314.557262334036,4997.973931414714,20486.9765478583,61462.06732316,147.49972164922713,11.244600924982286,18.400919867538096,8729.523501429598,1093.9790461389514,1217.827921853382,0,Low Risk (No Failure)
213.83877193185793,28923.24432605248,33406.02192487894,0.8619099483043794,49961.143466452784,20095.584305704586,9940.211703282333,12372.135589281508,17161.76856259074,124.50208969262812,11.33786382971674,19.051149062372176,8376.66419230324,927.8412032237977,917.4409317420855,0,Low Risk (No Failure)
114.55337142968932,14793.995896822596,14704.020041914899,0.4639465417220131,25041.896296878334,5802.786556945533,7764.020189762097,32554.911591118485,30825.40378717229,231.14621149048173,10.993743532676655,22.785440445410135,9622.366536335074,680.6579989034251,1313.0652346751995,0,Low Risk (No Failure)
189.04978365783197,5558.912623151673,6570.463004288073,0.9745325536623746,23621.728555634778,15272.807328321338,12408.263472806362,60242.681767913615,60639.98184561978,169.87182791387534,10.150817815914653,21.077727600653404,4377.456486248933,882.18833424541,1395.0393086344252,1,High Risk (Failure)
145.1667001522327,4972.03240178284,33946.489824915596,0.6919314196730921,29675.95471572746,8589.772457078725,7831.57560136224,25078.523435514777,18774.780151429317,217.14244321271133,9.320024125122092,24.19502794983159,9951.926494204548,1164.208322138484,1026.0408290939326,0,Low Risk (No Failure)
106.75491687390364,12111.769588214647,15554.806912604345,0.7405183646824492,41011.80502329601,19766.780875229226,1830.5386595605555,50920.20905005976,51024.703797270464,241.43693149630687,9.334852721537235,20.99476064138042,6748.435601645293,1099.598032261617,1101.7771558011327,1,High Risk (Failure)
122.18836635031712,28053.163013672358,12744.745029754351,0.01686287008210441,34709.370970288466,6773.276709275232,8854.542153123019,27477.805478685106,28720.642941600403,144.13511945844272,9.330866173760636,19.066769387514164,9002.821131856173,1098.3805613475236,598.8674500784891,1,High Risk (Failure)
91.46457359247339,5934.1394651375795,16124.125926345425,0.129954904076921,51760.526760819754,8835.925730226509,7172.556930238945,58065.73458584886,49392.407652994196,265.8340932622174,8.270660023631626,18.264827158659426,9006.053097280288,1798.4287888148326,1155.7479120245393,0,Low Risk (No Failure)
184.7713414416109,16781.223362316654,9699.025435715563,0.9228731744878906,19775.105704663772,21080.450768251452,6039.8088262227,62265.59204813147,45355.20989271218,274.97945032027917,11.607075706639364,24.824715958544253,4294.473475124325,1877.5449424138458,1321.655896384425,0,Low Risk (No Failure)
96.43995777651354,24719.221128140744,26165.07981989412,0.7785771869332669,40300.046242989476,26070.034588226994,2731.416924368017,65878.928744412,24648.46747396423,220.3705064865161,8.10984711581701,22.893780737276913,4580.620319754691,1003.298307701602,1315.152595318406,1,High Risk (Failure)
186.17839434758503,17423.36352482943,32738.375969989156,0.1864168552101847,46063.02884701124,10716.877959665473,4948.863496496707,12598.961167300944,33435.191267722665,129.05954992878515,10.847649051263097,18.325286341932603,3989.046898028668,1488.8073109661027,586.5721902564344,1,High Risk (Failure)
107.903294139469,17250.11155615938,24445.041469386306,0.40997972588656684,27296.810455001203,10387.336126024236,11912.207784187385,27525.72096991834,35420.47455297725,290.8444876815473,10.475337053934767,23.729999035062868,6360.357912123653,985.3041313281135,938.6852999145358,1,High Risk (Failure)
128.63109334882307,20642.913536363976,8009.931596362061,0.3584022386938166,33473.81012760222,6854.248719604051,3816.7574745390652,15327.586445014556,55956.495183023675,136.61394410583455,8.249781817158013,18.04375230639099,6177.1629829367375,1584.7814848763662,1363.5125459127125,0,Low Risk (No Failure)
95.14158857513104,5009.99030265645,32465.5018615009,0.26905105508048566,56939.064880082165,26843.382573835977,12310.861823134903,26451.667802097487,68670.37925622519,190.6112588171847,9.738457001645644,18.57572029792035,3861.799758493296,1385.4898303102755,1437.7891233993441,0,Low Risk (No Failure)
101.56857297026556,25256.752383907577,25804.007178920816,0.9424578385332962,22689.169522731394,22341.23785974137,6219.3914803010475,53394.59958170666,15840.267973837936,214.12042267794283,11.85235779140262,18.65109866811664,7899.24853148128,624.556766532646,1422.2378819955202,1,High Risk (Failure)
158.55767204162865,24394.52642460678,7010.842371125682,0.06878065769765895,18271.14026634584,7032.701832582961,10020.890703867493,51375.90973551498,54936.89129515944,283.8027263178785,10.15009917067194,20.268477359294568,7529.428413082375,1979.771542770053,523.2252042651605,1,High Risk (Failure)
216.2497637316647,2474.7650961784548,9220.86271582239,0.3480890322516831,19206.55144169821,6625.961493029832,4020.04121227472,11392.157834889611,68812.3564542011,178.7215369455795,11.330043977422712,19.10872857211758,3157.2344873707357,1611.358123196157,808.5818901226971,0,Low Risk (No Failure)
121.34354256932143,16064.01480534589,19273.81375204207,0.5348788154675899,40362.221514937264,17588.315647417567,8776.536283584208,39467.65385535614,12074.482341134059,262.9101921539665,8.691728349699869,19.78415489796748,3371.6803345206636,1310.937217696011,982.1014469548265,0,Low Risk (No Failure)
196.60558747274672,28397.752326096142,21281.03741769935,0.23597557711945139,28262.95240995111,20011.64532940615,11081.385938759628,25882.63383681306,29091.90482711932,139.12592974067854,9.358303347697209,19.077836025934566,9028.335578474464,1707.782995910567,1045.137620901005,1,High Risk (Failure)
109.90070972219604,25511.541186661456,11345.615532326821,0.7132817223822362,58573.21012228281,8050.543215779369,9244.554941206132,58158.446846647574,39836.54955800675,283.8484763883183,11.581376535137375,20.35346999591392,5931.919630902365,993.1035748573311,564.1852677978824,0,Low Risk (No Failure)
127.02807192072767,18267.029246983144,33992.278883702864,0.5655318769240576,33251.829469611286,6674.739812815748,5695.804792323272,29853.216403621933,59358.229186248784,230.95687342551275,11.707565434307426,20.70222506806962,5036.554179269388,821.6393063004048,1261.4952393082074,1,High Risk (Failure)
110.19249996114499,21096.182019436354,26959.035150581363,0.7734812033785419,25567.622211638976,29630.105371832575,8768.578392022857,65696.77603518569,48386.57944262447,189.7539574544369,8.037443863602324,18.358233362273715,3891.1283293511633,635.7428812665127,1346.7527020828002,0,Low Risk (No Failure)
180.13937084663957,12439.90233432687,20079.19414926606,0.529482882379394,52748.32129189698,28780.59364099013,9855.107090616813,35027.781350372796,23821.243594895772,224.04702157724512,10.02217834778512,18.98895569246459,5847.112787021413,1927.158507182512,1284.345205717792,1,High Risk (Failure)
155.51123574610762,20480.600373847017,11260.028735347754,0.3615554958702616,56531.20845989463,23297.65314427411,6825.9137748605635,52850.89550995835,67194.74845173245,138.21562502550432,11.13326719285461,18.338903655223074,6661.842059391944,1263.0210984592723,723.9789663995584,0,Low Risk (No Failure)
186.51570637423418,4686.204235143696,25869.20647156808,0.8954453137667079,41031.19153561758,8381.0196406139,4234.487203104691,40788.09040322675,68312.35209577327,104.98650693300591,9.19190322976946,24.100098772576693,7187.675528225272,742.3398958150061,678.9573957516517,1,High Risk (Failure)
80.16032445823909,15879.239332673445,5286.745584442057,0.7481208001109263,55347.04311247402,21107.621017978505,8284.239557095614,21494.015457159432,44524.329062122604,277.7054209129189,8.128559972720616,24.159082181239768,3034.092415236521,858.2903076747812,1060.7226676514606,0,Low Risk (No Failure)
202.4008546908106,29655.598202684425,17285.55440836142,0.9361469865985301,25358.157549206597,18814.243797548923,1444.2670634332098,16443.652938846986,16765.419275284454,253.9576998194796,10.289908300117004,18.600193706498835,5244.702440708912,1245.8429860715523,1106.3517967866069,1,High Risk (Failure)
149.08820199333604,14936.238284251775,5352.95283100993,0.9236026679779178,42696.97887041959,28198.8063741408,9528.573139637581,49489.36939746397,16968.111285975392,216.32090922916112,10.641607995239646,22.91474965026982,3422.633513301863,597.5404573679768,786.2015516141306,1,High Risk (Failure)
91.42707453952278,20451.668813681426,12113.94807149969,0.18892855544869447,30182.13804674155,12685.102491503949,3555.239257843058,11229.729781488139,28091.596079723127,190.092327746202,8.90750177366984,21.884324389364895,9080.715985826671,1638.0743894773693,608.4054579724431,0,Low Risk (No Failure)
203.30796441900458,24012.5846646361,10592.415414989804,0.3057588231556988,44660.16338548927,9162.488777534069,10204.812146885162,68887.72668874695,21743.41119657707,222.3947501018584,9.213396943923895,22.22965670265385,6295.126702598497,683.4087678334163,1304.74006847875,0,Low Risk (No Failure)
127.14038124908966,25693.049030105823,17057.605609780294,0.8142273280730709,23374.390550230684,12638.40366969717,6491.014000910425,62275.03326490791,47055.14067456211,154.19471538311814,8.85212115501103,18.138160186525774,3516.2181201301546,1825.586736102011,1020.3024593552115,0,Low Risk (No Failure)
104.3220038921566,27905.95290188415,23501.369923014045,0.8818909649480867,41750.882183725626,8795.136375994276,1207.3433699981645,55529.864142126185,59019.2724050719,260.09595280590037,8.162627474742845,19.51836588244987,3931.8258204311155,1833.7383089963464,544.5580523514946,0,Low Risk (No Failure)
163.7995382232029,17092.385180936857,6680.87399746741,0.55316327967139,50832.52702340228,8674.14602521353,3214.1468048580437,39440.18312150285,31383.58105797845,143.43337001563413,8.337942989392857,21.676673641085557,8596.697575887327,1552.7619312711295,1443.1928899047089,0,Low Risk (No Failure)
83.73491215393422,8605.955332634563,20902.65490743272,0.7147222018094264,42334.29424145179,20403.640660197983,13264.309762155957,18765.855067190194,66467.86650663326,280.5163780049148,10.770569295001845,20.26776489870109,5237.917964557597,538.6367223087756,1261.3679053506285,1,High Risk (Failure)
177.82432241050248,26327.472417401703,17635.741394761724,0.45383788125698044,38789.512447958536,15858.787996149258,7968.918767594741,29672.608508070312,52967.24782785967,192.55320447823402,11.883228178570777,23.241348560964227,7006.406426963203,1920.8079829311919,583.8814474852508,1,High Risk (Failure)
96.16463965055996,1242.2864209920185,22834.21564737857,0.4591299077754364,27546.90613110135,22443.137975423335,1263.3030768171857,62632.94523612436,20315.741731554488,214.74415953931936,9.137883575548205,21.529070056634644,4753.77374976523,611.7944067466087,1035.217070347067,1,High Risk (Failure)
191.76835625789104,11360.01707693395,19650.14431985956,0.12597786081916829,28511.198111226233,20995.446489963164,8923.948930789416,61491.26882261837,44523.825613453,151.45433112119258,9.455499196370276,23.423487966489724,4629.37151757044,523.2317988410358,1035.0106749412287,0,Low Risk (No Failure)
94.86280868079842,29149.372806022246,11517.722014815936,0.4896900421608815,39908.80329522601,11377.909115993953,10674.803097727905,57705.76374221616,69817.71077267439,103.94854957957969,11.04053841878357,21.98732062438353,8084.946879470491,1544.7549324313225,1392.980988121682,1,High Risk (Failure)
102.90789883918613,10876.702185212442,32488.125120305944,0.444802991036633,34396.95368453258,22171.16343429315,12221.87104605407,33341.82949509412,29087.585935290517,128.88756821744852,10.5041194594902,22.517669369167756,3766.0375323622943,758.4303408703145,869.8511096249588,0,Low Risk (No Failure)
148.55548419357598,18811.327995551637,5408.131863520048,0.645693868383918,26563.6534973615,18678.19885576331,13307.30606501745,13352.244405542375,12432.737224489087,165.9830857824888,8.148320410826845,19.369567983153914,4894.110432437925,639.0912588349609,1203.8132429104996,0,Low Risk (No Failure)
167.3851957407502,14472.900168738135,33827.52294674184,0.6788640890855135,33819.12529542258,8348.417471818108,8737.831111557913,64960.69283122269,54032.31525977581,203.67272774749682,11.60880690165324,19.20145686221917,5084.258474467901,832.1892710597588,971.665996356935,0,Low Risk (No Failure)
104.58343427785783,4807.351188139903,16741.34280091241,0.11365126131168335,54779.664753258396,5924.058755514009,2712.388777172433,27049.1855714335,47085.04702668045,294.3920057381257,8.056499316575335,23.53748626958031,5721.859646469051,1973.8060803524356,700.7227196804344,1,High Risk (Failure)
170.78978421189913,14164.806158387933,19184.13392338174,0.3799095448241203,42154.343632264514,27325.373337815312,13530.855453885795,36661.95686769845,11713.315650191822,215.48853630305524,8.956161837383565,18.086798094823205,4751.894286664131,617.7429970857136,1062.1051949014577,1,High Risk (Failure)
203.58171479419437,10867.974484786895,9472.692463047433,0.8919699127756054,24117.706531327953,7873.805561841653,5701.919634459009,63733.13716084627,36738.98807946355,155.98471053621003,10.540491366286515,20.007199406693218,6896.749637375804,561.7902609604569,1206.85670212262,0,Low Risk (No Failure)
141.1859101948494,29039.100958508414,23434.43024608947,0.5840386578266218,34461.7524689749,22374.473965133257,6033.4060612853955,64531.52108387998,39602.91183787286,105.89552071784047,9.231966045994563,19.70280738246437,8778.031920219028,1201.5341703369281,739.1823353984305,1,High Risk (Failure)
176.47028911580242,13453.989015282374,13270.57690708101,0.29665717611806086,56179.49584235383,21164.792094756493,14851.828075219772,66916.427838706,13924.452750454642,231.08581902131272,10.7747238955897,24.11955214508355,7412.230817565488,1150.6409448392346,762.906186894252,1,High Risk (Failure)
74.15880032830712,13693.7879230727,18428.716179965748,0.14003923126435214,25314.279502321097,28472.27498663268,12432.701340098307,22604.451705206884,57428.90671980184,142.1600099264527,9.90861940927139,24.20095126474366,8847.777914985083,833.493287766014,845.4314260975277,1,High Risk (Failure)
69.37044884552542,3555.670515516175,25028.216891810094,0.6356510711589388,17796.836720965533,5320.183315760675,9196.497324301192,67388.50148626787,29285.98833985142,185.54592696277723,8.188617413336438,18.08354506330115,8161.683292331722,1629.3146559744305,547.7164894087565,0,Low Risk (No Failure)
216.97886525886972,6210.119381867448,11813.79096775597,0.7176923105413323,53483.81127886404,28725.738551120186,8901.25812354105,21543.53581559076,26509.279551237847,174.04188680253242,8.401565003026649,24.164929762226595,8899.742717244357,1827.7410138710438,1356.610978799751,0,Low Risk (No Failure)
102.8901825316602,27870.976113333054,24539.596916787177,0.7557141336010847,59673.17870139691,8906.457941441142,10272.880961560313,21800.00866886114,66185.90577226636,100.90015709665647,10.32982874822726,19.9573548672919,3614.3937185540617,1552.2204716637343,1262.910515031349,1,High Risk (Failure)
134.25522551256063,18196.557684909323,29419.51923719926,0.35983203209255865,54465.53815242841,13061.96884298879,11930.166319720895,65265.6346309419,28040.721747016683,290.7197438730651,10.688076573034202,20.35815556765851,7881.256414184392,1013.9662621358113,822.3634970427357,1,High Risk (Failure)
178.2507161502996,22577.434085628756,21795.232867519753,0.3432301749675515,21547.11108556564,9459.450978591089,3231.480145458429,44462.34985271101,10353.0212599005,188.16757818476265,11.632772611711228,20.165043837894075,4028.4292769711606,581.4918201846601,897.2773260571721,0,Low Risk (No Failure)
159.24952821655435,19534.127562846483,34138.92380919776,0.9077253431293427,20982.852184468513,20358.238526518264,6865.5933053589015,57883.566491748184,18264.956597217875,117.44694043376902,11.514310832294905,21.487225041239306,6317.502223101701,566.4267413652302,1293.2736944557737,1,High Risk (Failure)
185.81520230648835,13971.779931325418,34884.35726372576,0.5566956708208533,56089.89541137972,14567.657129750069,13825.175798139253,56970.06780231176,26822.500397230426,271.3450671610339,11.59039128355879,19.642244917696292,5231.488442079075,626.1926908047624,1492.188814581423,1,High Risk (Failure)
109.02925163253946,18165.51772815303,33918.60276164861,0.022016115667118585,25124.163700821548,20487.38957485874,3115.920755525393,46007.065598088084,51804.99904560815,260.6367016692882,10.671724768167982,24.46718633747958,9734.916835679862,1562.2478209042995,912.0299651337668,0,Low Risk (No Failure)
203.2330940299519,17890.61722976058,27273.726926406696,0.46472195619874945,45806.82225523471,17757.681605280646,9902.752053533844,23949.02510397115,14803.015915178985,188.87713756798874,11.344277225172387,24.94746098052246,7589.204222506791,588.4553004989116,1317.8739055763554,1,High Risk (Failure)
106.22159022546651,26420.25423287281,17525.68418322591,0.4716430971017236,44600.83192615872,27670.26512453207,12755.575586608466,29590.67638180611,18617.1666564779,152.83790215312868,9.614967053909009,20.978168105347034,9501.563647874993,773.8200426661763,1012.5566185664425,1,High Risk (Failure)
205.50872058974025,4794.428479115773,33210.45133010575,0.48620868851984267,52421.39185527726,5281.263058698813,6248.063713513584,69129.16345676222,67169.91980956717,101.07319824346396,11.436238414186846,21.135146814598347,9135.955774878123,740.83833149735,821.2724245798307,0,Low Risk (No Failure)
217.36343563443552,13061.495974627775,10578.603361730798,0.8286949422440019,22714.491353018475,18859.61764578775,5087.627230978007,23004.614396172798,24607.887649616892,136.4831909755809,10.499781888543787,22.851629077321224,4346.044769504819,1195.9527267523304,514.1640044581958,1,High Risk (Failure)
135.8742746651942,8618.168833056123,21993.99817938903,0.5053353209771434,51820.71126863685,8407.226939046748,13532.68799324029,35116.728477373006,28425.21586147289,115.86162646434326,9.415415203927285,23.631925300645335,7820.810972159325,1076.803875917374,502.1569178726476,1,High Risk (Failure)
95.9104914938657,11911.520550582236,11284.586681587993,0.22992516354556058,15701.441314891377,28166.58898486174,13062.814032935534,64823.56053860123,25615.96308558761,156.62951790687308,9.846452060682065,20.220512319508593,9298.257222684013,1030.3672411140851,1220.5536466773474,1,High Risk (Failure)
161.44091249593782,15846.220289775905,33212.041167865566,0.9973206116397705,59508.328936553124,15164.635249145229,2358.350547079568,27972.224800896485,26537.681137126074,259.1979990280351,8.111239903715031,24.327159246928463,8118.459076868231,687.613458478497,744.2980759016511,1,High Risk (Failure)
98.59223321592664,3507.2677064844174,11468.271892465713,0.4733541793328011,23806.941645123057,11057.029002948973,12397.8251024513,62807.93426313458,29403.583325250198,288.0989168797028,10.955995979910547,18.461254072087446,6909.518720776594,1609.3509536441372,798.3427308884002,1,High Risk (Failure)
194.36836570169876,28657.40516825953,14292.756897758618,0.7399312514704082,25759.292684397682,8274.547594197811,11551.043728388457,22600.520277274576,27462.592386385066,166.81229806342222,8.834309075053381,21.84972542811276,6092.040652980037,1567.0427027279181,553.9339871959708,1,High Risk (Failure)
116.19510197580495,12868.237639776522,24830.811747031014,0.7140027085235114,39517.58196100474,7667.838880298937,12237.997158641432,59834.53132380048,45473.86973835096,199.28214978109668,11.511986063280814,18.257064203421336,3487.617343882924,530.057237931301,1130.3391736871015,0,Low Risk (No Failure)
215.69250607557325,4780.198711728962,22233.01271889075,0.3948409997650211,30909.897459259813,7661.595089691912,10152.030976650347,65341.99355987803,18366.669840527942,114.11323955447195,8.949022733653315,22.297569035099656,6357.846582123531,1097.172860447085,1035.4622712979303,1,High Risk (Failure)
179.977589006123,26833.8998138082,16995.760854116466,0.6070579925056904,24511.498971680092,29507.458299655154,9873.835010136843,65298.52515367462,62975.24633518966,286.4427377653733,8.390848671647879,22.969975740721317,8074.397862467268,1468.8119742188996,720.9986019213953,0,Low Risk (No Failure)
101.62524655392818,15306.906053519035,6813.4076895581065,0.3170887872741256,19356.542546781442,29285.10382917399,11485.714866113582,24727.79548116646,42788.203955245874,257.6552884229937,11.74462992582778,21.292526631074058,3132.498943750105,677.2877206425954,1485.8884762824423,1,High Risk (Failure)
147.46836238356988,1882.282649968483,7079.487841139506,0.7847732031423843,25640.68092280601,10717.840128391148,2402.595660654582,11443.410804026436,23818.574625178204,162.18136167848166,10.786296939968281,18.553069050153386,5986.227629854523,1399.279300058915,801.2700724578875,0,Low Risk (No Failure)
128.74509003822962,25009.82368181406,32510.651356416693,0.9035829853016417,26073.537222849754,29120.147996223208,2321.077349422923,12037.43572104797,68517.38621294641,228.9347126753255,10.985084269817435,18.607723989655426,6713.971319325121,1225.8540578587113,1348.5452204449155,1,High Risk (Failure)
211.54583406403964,8616.374758616135,19241.8335581145,0.045109006285336095,56708.18444232043,10140.70203676926,2210.933836299566,40741.02468639343,13149.77122809288,140.25209691114932,8.32673714177355,22.65928215352958,8067.790303121056,1274.6023631805228,1331.6450002257036,0,Low Risk (No Failure)
148.69664840182412,3394.592583023038,17422.034773034495,0.6442881565277788,20508.48630089551,6180.715991636688,10008.237293548427,21694.00969995092,58617.35381505663,136.9008359790267,8.62865176564971,23.943523411788743,7483.627346142248,1723.5170921196968,798.1532360057449,1,High Risk (Failure)
202.11061594580866,11567.886113866694,5507.880572766052,0.35882860691438356,36395.535577291084,14427.689708452705,13219.541773150022,22107.567736472825,31773.373358612294,141.125385372038,8.328754562595954,18.43238537002058,3183.921922196469,755.1312274582934,826.0972435593046,0,Low Risk (No Failure)
214.04293604051298,20292.912250870413,32695.280853689896,0.33359958084227725,15044.633901133218,16110.890244363469,12634.215642748484,27906.2876131069,50096.04221074715,224.21111090300826,8.294391384062003,23.093342591591515,6971.860749387708,1345.4053625538481,1319.9634372246505,1,High Risk (Failure)
155.5886788117472,18543.283582734897,32630.88548161406,0.5796285275831441,20060.280295508994,24762.79412728238,10552.544100511881,39222.56766178041,17039.616631949168,100.72941548650267,9.102707612748977,18.539967287983675,7132.446112019151,576.3282580946187,693.7166736328988,0,Low Risk (No Failure)
88.89205522037336,4841.64903391587,25112.465439768697,0.9873155491986286,43202.85390099534,17808.256381739575,2844.144363054753,67899.37865045437,55902.217900217656,244.83465910888845,9.704898406774674,23.435104443885216,7068.321498867574,781.1753614630934,1047.797795361043,1,High Risk (Failure)
149.8043516111194,4421.202025213785,30410.361061672505,0.40014546728455913,33430.14298125397,10204.600640015606,10343.300953571552,38696.38315888349,56367.26835228764,286.0177015893994,11.028524603045355,20.572040670063554,6041.402791614445,1624.109799284261,1062.7596094371142,1,High Risk (Failure)
217.84243980687674,4063.8600180189906,6439.026757384277,0.10962498633000228,39214.36209627766,7588.823553367739,2257.465161781951,30014.583675777496,19029.796464202056,265.4878466758114,8.718128137978542,22.404601522926843,9766.48972866012,558.7974605595448,1340.6378394583062,1,High Risk (Failure)
80.53213795020233,22125.65742119917,18767.495728962058,0.8123688028737808,17183.034151182925,16783.431008015352,7595.524098457734,27488.945862503868,51024.669497971285,158.87588933087903,8.766076793654042,21.45357702249214,3295.3847597682375,699.3625964335016,1053.325295268936,0,Low Risk (No Failure)
123.65689584731867,5828.602864435938,23424.881078485967,0.5866430124456344,20620.675739589133,6210.5736606694445,8247.164570567216,21252.537400300265,59616.22910291601,284.4849081223517,8.809777120648251,20.65043036263438,3648.619707715033,1988.356765354087,968.3242074591694,1,High Risk (Failure)
89.5162005013823,25434.080542490257,31332.75026578199,0.5340023057474993,35456.824812962404,28335.999731006486,11312.72948058028,54203.03948908295,55229.8047092658,114.86048676096392,9.534905198987774,22.352131428208544,4361.389235801098,1724.8088113613865,1010.6838500438239,1,High Risk (Failure)
210.25095671204664,15996.505755286584,14548.296383584413,0.32283777773130984,51387.19134782257,5147.938464942302,10459.024902283376,26340.900847302386,57784.03993792672,298.009308070283,11.999075859489443,23.951387041043276,3030.9691168367344,1192.884854760137,1440.9725800629128,0,Low Risk (No Failure)
64.06706027905523,13229.665908251574,12236.20323884069,0.6694985765506946,57626.15445178181,20435.838012061944,13211.700722482261,18494.349483568803,61208.175237507145,277.9058469965762,8.263799197359873,22.10581557655087,5966.130886376327,574.7465467335869,751.8071521475626,1,High Risk (Failure)
115.51251230339643,3050.2016373466195,32742.42427593085,0.5607431960154171,27683.293133377043,23824.52684940492,14266.077066523632,30137.48907075132,44544.037453225385,236.88990135540314,8.098397863113536,22.43951507994357,8912.0362665885,664.4421100336169,1257.723015204918,1,High Risk (Failure)
132.39032258123095,14761.47331605078,8648.686720402828,0.2990802116554113,39134.84213787477,21903.741960559117,10154.282453359872,45433.17406205341,28012.03345885798,138.76932468643218,8.079160630533828,23.68072078371799,7550.961882613192,527.1340227814488,1049.7641407563196,1,High Risk (Failure)
137.76007900761647,25638.405074491286,6506.393643727182,0.19118303909731627,48999.6476628612,8984.958516810771,4607.750386833282,13135.069427357237,65802.39963567632,226.8905320011976,11.480197196054128,18.192725972078335,4070.2158771834015,749.215556892209,1448.085823745609,1,High Risk (Failure)
152.89413604448697,18524.828174822887,24526.36512487332,0.9414256718178797,49220.53977119398,22673.22837970463,4800.830405995781,54635.23488817847,42933.34380974424,263.4202640350319,9.497748183877478,18.811091318000987,8667.73019674147,998.0105550611988,1027.6170217278548,1,High Risk (Failure)
141.24881023340464,6320.278658007086,14764.069660298679,0.30160356629716456,20015.796281258255,6757.914817943851,13852.120327488876,63735.527110080475,22851.05994572019,185.81285369823948,8.739391856826575,19.63397306641353,8472.62875254681,1225.571517465206,1235.0816013517626,0,Low Risk (No Failure)
92.92710031830748,1006.9853610181277,20196.61447644253,0.706560814322998,26429.435214225974,13752.951986528124,3272.472934508385,40888.865765673705,31882.277933383863,236.51419099404393,8.04745854857387,18.35249379268054,8297.720738803444,931.4626271521641,906.8896351035326,0,Low Risk (No Failure)
130.17846707033448,2088.3310684222906,13216.15459116113,0.009506202418105625,57194.420350109016,14763.691168111496,11141.903592422572,47280.35859867243,22613.711108216427,198.0760817979078,11.464887019350426,19.92304964897709,9001.510240703497,1811.4096498384429,1073.685396791323,1,High Risk (Failure)
202.80931639783591,28265.215207148,16135.22362067339,0.9528695203580837,45420.07024238583,14198.057423956992,8672.66503973961,49326.587514073704,43969.005077021706,257.85600846390423,8.822812302101266,21.417006301793023,5852.760619778588,1656.2172082781165,1019.2577510993544,1,High Risk (Failure)
108.1541707114906,4933.171864212089,13501.930837117814,0.67101247484487,28543.898193468413,25970.43930517094,9500.97643779112,56629.61227647251,47732.08955995821,234.1366004474879,10.784290492672023,22.207939729142808,4373.634239413963,1226.4241094510865,1385.9176049948428,1,High Risk (Failure)
177.29140736474795,26990.85122523786,13874.400882540791,0.6618292896781035,48074.79751189897,6945.00283305247,8916.635374759613,48096.01241862503,27754.672399037187,228.80602823437718,9.49745990988141,23.808266083517253,7611.881426179882,721.3770260334023,624.7422077543519,1,High Risk (Failure)
155.62692523243248,25164.86717903959,33516.511158312685,0.06372332668871827,37475.796037781125,24013.28412424503,3496.443040940231,30832.740975382563,26550.987223312583,239.51851313777732,9.613953468018101,19.49525426481089,5905.149734569839,1989.3473781683174,776.8975784952127,0,Low Risk (No Failure)
144.6299414443539,28558.097484730803,9001.437099132285,0.525631914599504,24809.923697479557,15793.593558123155,5877.305220090226,45117.04274098536,16372.845587841119,299.65422002429307,10.99130663690519,23.81253231494628,6502.817306725206,1051.8295946876603,593.9016645423193,1,High Risk (Failure)
115.3113589606271,4116.066026238335,26202.958455848933,0.39198111290696014,48956.87393510065,28694.68786969884,1577.5722450813928,12215.058584640581,42710.034890761366,209.43131064221578,10.041928244458658,18.215468531660242,5656.446107829431,1194.2762594074427,749.5382421691763,1,High Risk (Failure)
147.77414640875014,10909.644500908962,28100.914061045496,0.0915920341444687,45325.02295258714,14064.406229225207,2132.2701571086973,60017.77596743778,40262.23972888805,118.7776208442366,9.153131464519085,24.001928180768342,7337.380501249249,1793.1611929211251,1350.4225061183095,0,Low Risk (No Failure)
217.97378537272735,25806.83670102435,5912.6694317985275,0.9019880942931561,38353.82351749744,16608.261034906565,7150.884278159327,40269.130796053374,40297.85498217705,157.92489156100538,8.989263984751865,22.761110487283073,9272.51155463667,727.8804831589355,1441.5105797539004,0,Low Risk (No Failure)
126.10760275323513,13121.977290690196,28962.474468560024,0.23551445155666284,21074.80061987858,14892.553620850791,1324.4651717581644,68298.66122997893,12258.22538511569,252.85169353645207,11.428109605346767,18.391213376481954,4091.60175264885,858.1188191593203,920.3906250333605,0,Low Risk (No Failure)
140.98269805443906,9780.260620905327,15367.426200460925,0.5767897084972363,31344.132514949473,10652.797765856463,2437.1417481653452,24848.819556466362,18021.687554929205,105.76547103449863,11.479572705282367,19.231194255218966,9018.713192576217,1553.46784058778,956.3825122900557,1,High Risk (Failure)
113.47902253071373,19709.3524157262,25778.40330275302,0.6574713688561535,56411.816909772926,15898.999728219103,11219.504139886356,41789.5626648276,17164.734544396877,158.77714651070983,11.744772291465447,22.632344380489336,4617.641372138163,926.4994738091298,1109.5915729505707,1,High Risk (Failure)
137.5236776305634,23041.01215229204,32083.281432936346,0.7310758817345485,46215.4666403365,14607.01421149388,3634.0256299403927,10178.017575978034,12694.301717636039,275.1778128376891,10.729880987019845,18.042521040800796,4412.782214063436,1311.3106965215143,1265.8845768531853,1,High Risk (Failure)
62.85982955734621,14359.510957994802,6366.504678960575,0.8755566543496063,18267.488366823607,15983.262569830007,9018.730417990122,46142.75101871065,43462.350418000446,139.5745936091268,8.618310422688626,21.594247798841156,3932.415984588748,1010.0376162326767,1139.353173676378,1,High Risk (Failure)
144.74555583129919,9193.685046210863,23828.910647053635,0.0202702056730526,15311.404301317205,14018.224612402153,14709.217422157797,68094.20115817845,52324.37735172886,264.2102045876947,10.789918418151183,23.73892662850202,9657.845803998509,773.0273129795901,1096.654033822188,1,High Risk (Failure)
206.4781276140867,16841.18040379468,16936.357624321055,0.9933675008820889,20589.14822836982,17805.71313413832,3859.6904294402325,62690.12627318446,41961.60157712234,293.55733746423357,8.497743597643645,21.368135173196045,9747.106039946253,741.7455712360131,847.2734045923962,1,High Risk (Failure)
171.35587297499168,14131.919353245477,20963.33401511011,0.8381759206857385,15162.190794972923,9653.0561132189,8368.652913713251,32420.832464686027,43536.43539294073,267.5223666668119,11.845615220353633,24.074534168070105,9003.950139525852,1470.7581226450845,570.4756030061952,1,High Risk (Failure)
205.2177604090488,8133.99246889706,17951.08935969257,0.3851250709192222,36170.92421779211,17209.237173871275,11128.250888630986,56208.68164427728,43768.03133121515,179.3125800851219,11.283725487196698,19.470240369576178,9229.631383863143,557.462674677195,800.1190106554466,1,High Risk (Failure)
200.7863402763223,17008.526996573884,14075.118810542348,0.20372246193051546,21434.889803794744,19566.946867920684,3707.8603880097,45118.22131687559,66370.04498875077,292.9562015661784,8.691804331473755,21.09189273136847,3024.771514751445,749.5408719285169,616.22365525292,0,Low Risk (No Failure)
137.30893813018696,8829.2354688084,9612.350959873578,0.32009310907555144,19318.133843842843,6015.130548999788,4881.226624723571,36156.88888241891,67464.6625615636,116.54530152986578,11.739146421041672,22.90430946191904,8407.284379488334,910.4978547128406,1141.441052748454,0,Low Risk (No Failure)
76.65754390146661,25777.585886444725,13829.652326937077,0.43672255815566663,39930.765859842846,23221.22548411528,14506.442479094856,25031.48439553153,57276.057186549515,138.78619615812818,8.790520019261912,20.63463477330754,8979.116111996269,1565.26184590933,1094.6720178062785,1,High Risk (Failure)
103.23963074092532,16555.901109320883,31305.757490785152,0.9824898317940618,27806.133257144204,7737.937298558979,10056.004578382443,54664.24502950672,13688.489622398192,133.8143477827557,11.870610615798851,21.55370535741148,4816.328858711443,583.5870983738175,669.228201695091,1,High Risk (Failure)
116.11389047227362,15296.498603284583,15390.905093254829,0.7618130968758637,39793.29996384259,10488.275495390484,14895.867421316356,53777.611390601756,50456.121376858995,248.1504794057146,11.463632558721505,21.034538907075394,4999.99925184153,1106.581492870255,716.5451895784174,1,High Risk (Failure)
89.92699976920375,19731.90889766814,12299.057839489014,0.9037249203738076,39553.85069671043,14331.96528931799,11479.489666892006,31384.42573313108,56706.586797599324,172.17089350479884,11.429458229882082,21.89917598494775,8289.11965497002,1803.598940199153,1007.8629269924752,1,High Risk (Failure)
64.24515261981115,16745.272890190507,22662.783906950284,0.23277968443747898,21636.778863177038,13636.544326581969,6443.294964081929,23092.77310994423,45068.272197197664,228.75681508971897,9.381737729197795,24.622003583466118,6161.878732219053,975.0936853598117,581.0311095780168,1,High Risk (Failure)
135.71358507064915,19871.00714568021,31286.100866749544,0.9321300733011637,15482.52613024733,27143.180205923913,5698.872162352565,18182.929812594524,36208.726964068104,225.91102838800768,10.23440354377504,24.600419780678052,7787.909740810442,750.7505916028445,885.3183046622598,1,High Risk (Failure)
123.44684517140323,24833.340359834172,13904.006151555168,0.8783356058875871,15586.137614081597,10264.59735206611,11170.320208558109,13926.550139503233,10592.25592235365,250.52161451386058,11.627424944465695,20.34021131746555,5337.502956608963,1238.8262301105467,944.0459967372383,1,High Risk (Failure)
66.23936201198586,6272.445504341543,22193.83769817694,0.3967419712627397,43992.27896863545,18021.926143952674,12094.439895643964,57612.5365400196,50664.228806496234,255.69345519544245,9.32658409547368,23.19699140141808,3245.109418040376,1468.252839243184,1100.895050048924,1,High Risk (Failure)
187.0715730043335,18851.026072602195,13880.73654561831,0.42506817361600746,47357.49289995897,17702.01340464184,2103.360289003864,44030.23013668812,10110.659015094496,195.41705903255442,11.324707954118129,19.533182514906848,9375.18531415919,1665.7024033195637,511.06052343559116,1,High Risk (Failure)
119.52289372684531,26171.409175196182,24392.05209997399,0.29130280870515035,27251.331679408642,15920.389664265973,8756.137961518049,66408.14920329211,24501.84014784652,258.1975438497192,8.13098301809339,19.56044633672403,8739.198326670748,824.4721872133065,1177.6379319200084,1,High Risk (Failure)
86.0830582103818,8126.759053390747,20971.960616807388,0.5810162362482695,46387.365462985865,7436.398681118146,3610.354898354762,27048.557063771557,65468.04341275047,163.86660110990962,10.03629225584885,21.86880387381207,4350.393846073457,522.9794623131072,1421.595135168197,0,Low Risk (No Failure)
113.01635499781072,21008.96635666451,10263.64910590823,0.9287241979920444,44054.10565164297,9927.425366477182,8007.870989250668,46653.472008489836,12986.23664933264,184.29370543480744,11.485233414368146,21.808624872618466,7654.920027309145,573.7255334982361,1311.180426345717,0,Low Risk (No Failure)
134.2291978701338,17987.56985700038,27710.35603242081,0.3388818862486742,45657.53386416599,14736.279462298093,9776.332932619596,61916.31001267236,34800.65385595932,124.41901110682359,8.848955598735365,18.882110138346885,9705.270104201158,833.494194588918,697.2978944727317,1,High Risk (Failure)
200.35208653009732,20797.46342142002,11297.954950204532,0.36312844284607204,39016.567372944824,12700.90687320587,10295.219355527797,30867.096729944074,53475.443092654925,105.49853157651137,11.975631546202056,18.685253653300332,3917.3561157393424,1170.313327660695,1260.7679981465144,1,High Risk (Failure)
195.37987368483704,24601.044816192454,28366.779353077152,0.8963645620810967,35507.941857603975,15323.322462067244,8005.104070213022,35203.93593201692,19938.204278112185,170.63772640459862,8.820399606536295,24.221615438709897,5683.767112629578,1659.3022679549358,942.2307180246657,0,Low Risk (No Failure)
161.34460104166777,9270.968277732009,7827.291992135769,0.21668424398900266,40511.8478480858,6317.5523646854235,8770.518427797913,20143.814092180008,20376.002197499845,284.2589402652818,9.643184642734665,22.840631040700238,3476.2316608380725,676.0695500420502,847.8658360884949,1,High Risk (Failure)
142.83386294155383,17495.569356582313,10991.85557367215,0.6467749610819326,56043.062694974324,27376.107194937096,11375.68969549135,45389.62412349979,46333.90635725476,131.71600299183444,11.087943251282754,24.878334301180686,7425.0093466396265,832.2843392563902,1382.741741742082,1,High Risk (Failure)
119.69961894758137,13804.871377515083,10159.112055306288,0.06243428402801077,58957.31948441333,9911.791271238297,12731.784423926663,35322.79454322582,69166.11059365235,271.6048562892047,11.932051322624464,20.487573975371635,8670.174196320484,569.6208908366451,1031.2157117699198,0,Low Risk (No Failure)
120.79665263446314,11688.311601803702,7087.453506307371,0.12236482876602428,15903.019293313502,19734.026299901867,9012.54405635042,13849.5136921082,34141.980581164105,146.02519854203376,10.469213985211969,21.392379438607016,8460.099897573742,566.1204862078733,1049.0071082760026,0,Low Risk (No Failure)
190.79195335859066,4779.2216546474365,5634.914419461148,0.3485466516033776,31204.054311609783,8208.739060838117,14931.025021807949,13936.140814447801,47822.31936193294,288.90800879900826,11.480249407807252,23.420113837731062,6968.91812395787,1003.5993445495628,1334.686448695626,1,High Risk (Failure)
191.77977771983575,21892.066003677945,25628.04286762201,0.2772908562684234,35740.04863324725,9144.594655718098,8010.472269750581,29986.56183977612,37794.36083514162,200.6637139807038,8.099822954998016,23.947136647555887,9123.264469701882,1996.7077850195906,1059.3790306132187,0,Low Risk (No Failure)
200.48536205511311,16511.309917003902,29885.69496502264,0.8686272654795317,48927.1444919865,18791.308095480897,5637.168051931099,59959.37358278396,28512.825829670262,241.55005392139896,11.221793702123943,19.51644886956238,8181.335293048482,1548.4482101161468,992.7250071787423,0,Low Risk (No Failure)
182.92374621832292,15265.912697134749,30837.48155549195,0.121442615728375,27542.761950092085,21212.44377922768,7059.282243706828,57077.2175431216,66809.07509440937,143.54229877286474,9.761748201820991,22.869597607656452,7314.133066231029,643.7414162949669,1267.749159440284,1,High Risk (Failure)
127.47534829975287,14287.939352314263,32662.77960716995,0.5835295488659132,33295.267654064664,5834.764270724392,5201.28952871326,57258.71105387544,27567.625350833794,242.7673564223191,10.702866975702408,23.575244648798297,8566.014711578717,578.6248809421068,1142.3900639604376,1,High Risk (Failure)
171.0319344816251,17176.4936463276,32795.01857132664,0.5733137445715221,29356.22707680073,12758.567851430595,10837.02608516723,48934.282483640585,49800.16596072891,138.676530215443,8.408495825633885,21.336165831169502,6164.291768137249,1517.6726071561602,1249.346696256408,0,Low Risk (No Failure)
128.79763425936954,3642.9828336015094,24284.105263486283,0.5073435323222163,20355.242582321815,18269.048753875577,9953.906928465434,60724.73249769104,55913.78987359021,223.64291908938384,11.175390954764218,24.610832157697033,6780.787668920271,1014.9032266495251,1262.7289150413087,0,Low Risk (No Failure)
139.073991560048,13848.159322419664,8882.090017957038,0.3712669241150709,49889.804142904155,27093.12879883529,4038.0067232975753,62509.47688550606,15109.074451054132,230.43858499082725,8.852232215681058,24.949479592519676,5324.344164015813,504.06896289246885,1244.8084521182475,1,High Risk (Failure)
194.22369383134946,29599.12712122715,27725.294684555178,0.05341667193451061,40139.38553685043,27023.08247720596,13665.24858234923,16988.918458363565,55144.71731292325,127.5648193544536,11.349297851857088,24.41858138078546,9429.66125554108,1523.8979440846638,1285.5352008641812,1,High Risk (Failure)
187.8652753767651,21765.828549167185,19898.71442189514,0.521784766714886,21618.86965216741,28461.65785047191,6714.29601259605,18268.40018721603,49422.65644436207,221.4127006821862,10.783118611488266,18.25232408691571,7652.867987769139,691.0786351920719,813.928037705349,0,Low Risk (No Failure)
128.03416071507735,8118.179413628983,27504.50843895553,0.014628539205070012,56486.74517836664,20852.25085904576,11529.018296999653,39986.258301576316,33954.59228359745,117.21421524153541,11.447076536820507,23.01423337880736,5937.6919299193905,1034.1345718946875,1144.162757431136,1,High Risk (Failure)
131.17638925240652,1090.527889335879,15132.67284480756,0.7376111617321327,32254.17599912582,21513.172249665407,10892.846963493987,15076.491162198432,69646.2546595279,264.83878374432453,11.214509591814044,21.799885349592465,9872.553902209416,1508.611503934123,752.4841166398724,0,Low Risk (No Failure)
195.20634382346282,13764.304969499843,14018.957857450267,0.4635015661671852,56061.374357370696,16879.05960944733,9657.523633605735,42782.69959396069,45434.27721462365,297.21666228926415,8.539877344259171,18.732173592365605,8514.674588963557,1382.191470256547,1001.4191572724409,0,Low Risk (No Failure)
65.31249740661865,29031.132336476185,18210.55321679757,0.03577469071400785,19286.792953145516,11000.839609358256,6893.606045495586,31123.67017392121,59776.275293660205,181.83959114743408,10.53996302354277,20.925789166738895,4930.303493784921,1533.7800686299092,661.345924815148,1,High Risk (Failure)
63.22205583188637,28441.67029708938,8792.78681465084,0.010738981797982494,49662.5663479521,19951.37568849114,14884.13463046725,48567.185277820456,61073.3161956681,113.95319214732842,10.936614416328016,23.999654540374188,8787.151796100334,1816.281532825635,1183.0492390039549,0,Low Risk (No Failure)
166.20634978809426,22681.902912384357,7124.441041572935,0.7340042545436842,27230.71886806537,26567.739719488705,1005.595696250549,36800.09844864288,15265.553231158638,285.30148401540765,11.578987638857331,20.07039543947257,5624.021392085359,1591.7490298391226,713.7828075943322,1,High Risk (Failure)
154.45563047340366,6592.348659325123,29093.72498537116,0.09137144056141477,45695.66799779403,21079.34488348355,11649.725703207363,39968.34221882677,22703.04676242337,177.1881774309349,11.914432514397076,20.3594428805009,4839.034311014964,1832.3387984192145,612.8928009652835,1,High Risk (Failure)
120.31110870798521,14211.436677713154,10855.238451200186,0.42814944199235205,24590.52600475013,26305.87041057818,9412.248489333657,60778.44896294676,14910.37920067396,214.7172724196422,10.391939356244766,19.449326124955654,3769.238502887361,1648.609369915568,552.5837239133486,1,High Risk (Failure)
158.53601568835464,16588.664165570044,18038.229616017605,0.8338093088728618,40585.74689130964,12231.676820900811,5096.2342713639455,59897.5213461723,23323.157090476147,118.11122242213963,8.152108447909228,19.856810928339204,3584.3623676914563,1525.8145437754133,516.1218826440645,1,High Risk (Failure)
75.00424420112265,9386.601407010221,24843.225153523243,0.2946899854393751,57783.73227190164,8355.833264873556,5761.850951808315,58984.92304487638,39500.13903660894,285.68494025785856,9.233098371561692,20.012275135370004,6964.669422396704,985.580046241725,1110.7539174971712,0,Low Risk (No Failure)
136.56453918712361,15148.421573943726,17604.036625493012,0.137951010468357,26938.044498701303,15645.25774083137,14627.89834971747,60712.15211675307,66711.22322066953,143.8543088028197,10.983305796731244,24.601447225172578,8014.4523128374085,1281.089576577875,1291.3731131790678,0,Low Risk (No Failure)
92.02403907916961,26556.269768774804,5335.979157671123,0.3256447769498927,27403.99036090248,20014.959556791757,2885.810646523386,66717.99426691225,57156.04660435465,216.76339140151924,11.326345868016912,24.790376997391455,8678.903561001058,1340.9413153852506,585.4320043109024,1,High Risk (Failure)
88.94270422062374,29146.626646193454,31821.63838106434,0.9281452208956421,34777.13399151627,28109.099042142247,13421.826502995824,61918.63145040778,31594.053382122995,109.09966117199696,11.040299204138648,20.030510184416965,6388.3553180203535,1012.1806837581187,1355.9662302890301,0,Low Risk (No Failure)
135.5650886660771,2112.4850888512647,12986.848589524045,0.4908072494527028,59293.9135888141,12183.134985147404,10410.665888765707,68178.20914007844,26300.323297073293,158.82883921717462,9.026940848155732,24.137477854846086,9257.330730372221,1909.974547791401,1152.4544445671152,1,High Risk (Failure)
130.35847784126537,19419.552677054115,7496.531082202114,0.672511369297406,43844.73522567701,13169.854627694887,10918.472870591082,30152.371748187277,16953.053843598515,248.35570736220023,11.181455663216504,24.099035654731757,8231.08937550941,1333.239292942737,677.5962753691394,0,Low Risk (No Failure)
75.62753824102143,29124.747074379757,13745.50784453577,0.4718429748376137,25609.268078860787,16271.855785055996,3037.8714682007303,39351.70397335777,66573.40368014155,254.12619667379414,10.304559853420411,18.7938956202725,3881.1220058035633,957.5892373780282,690.4658278891534,1,High Risk (Failure)
165.631580274837,12744.089033909466,33668.64139344068,0.05060138712180473,32199.867043030095,15997.761097805358,10239.594063821487,46470.748187011275,68234.1566894582,120.18877797195856,8.686027422838674,24.137272902383938,6260.164956666567,1971.075006812579,847.4909823997637,1,High Risk (Failure)
76.40155647850868,1637.4726294790644,25139.10539280549,0.14083342765301232,28787.230222156697,23285.54868403582,11697.47336800248,58744.30030308384,12573.28215309641,251.0494639497653,9.096239377244709,19.325132164222865,3868.190260865033,592.4297144970172,1465.7832552602017,1,High Risk (Failure)
205.49126433260514,20333.883904882878,21744.02474384645,0.6416865079747998,28017.226217601514,5442.298078028708,5585.007049124607,62703.25997515877,23370.096952413223,224.14109936001762,11.077210691358454,24.061147957273086,5431.428686473642,1906.803086616426,751.4322443129658,1,High Risk (Failure)
63.736335412509746,21012.185271475133,18032.604143549885,0.17869295228631332,57283.76361973101,18533.12797727766,4781.793323186876,64112.87051830662,45419.953155482646,214.26276766324673,11.213632062721736,19.96465550552157,8883.38507004575,1957.3555692828745,635.6051471466521,1,High Risk (Failure)
106.90363684176212,27530.422345697985,6985.061651755425,0.6802656287285745,51638.050348682125,14663.754618123463,12074.145293991849,18939.754094257623,69049.16591904097,117.15868910258914,11.64177009011355,23.449025696528253,8322.183319826385,1667.6725687754522,898.8314247870419,1,High Risk (Failure)
92.90996195128882,14984.53167978247,32663.93976588231,0.20644269212906896,15120.194701544848,12010.11999063467,5489.674639696925,12551.598517731814,37142.88877246856,291.58744330935383,9.717299241118699,20.82702508214871,5276.872210120304,1032.6594901862027,667.9955549004193,1,High Risk (Failure)
143.96102906115806,10339.958520676162,12203.798613545598,0.7066877084605435,58748.23356841685,18212.050023988675,2438.442747551895,18611.7565043113,31268.33502630125,161.95790273449418,11.19575819678694,22.327784797879815,3381.5245296648623,1845.404276646929,1281.99256365991,1,High Risk (Failure)
115.81310519338082,1532.3160069951118,31642.411467764156,0.6919023140836209,38449.32310467392,16685.30717670878,2867.790718837093,45761.61271175207,14333.681281371893,165.52457705062346,8.499047957197252,19.64527813477634,6083.946405014977,1030.4477029189457,1198.645537636091,0,Low Risk (No Failure)
192.6264758641084,3933.8029687799935,5464.47377412546,0.8756993729425655,46043.32329358357,27266.247285114925,13634.043089858666,42754.28259003743,14133.484043150991,233.03130478112263,10.551205049843857,24.912812112444975,9273.030067942174,1546.7145068617006,617.0502737035952,1,High Risk (Failure)
218.85069423985126,2925.7552503544234,25526.290117651115,0.5094018695309703,59329.29855029089,5588.507106989747,1076.4865393862967,39819.85861201759,40013.37033453373,182.68974287248574,8.686894935846874,23.741979227832694,3613.3342003110683,1512.2151223924668,1116.6534232475292,1,High Risk (Failure)
96.68022323722263,19175.847107727604,14028.731466760173,0.9168232920234202,31485.66831188994,25719.792632504894,2987.023671623141,53291.88683943291,35251.91497090043,182.40003666502076,9.039475547437245,22.015349392529966,6343.045715760365,894.4936630971657,596.610836938718,1,High Risk (Failure)
92.29655233967173,4657.99208246841,31698.976062400445,0.6826985047758368,28984.0473691601,19987.74573554736,7683.142953852287,22788.699292320853,15357.467377903842,268.8791225678785,8.045470483578617,23.388359085124392,7250.727713516454,1319.968091178744,1155.9240108994773,1,High Risk (Failure)
106.31032345911807,10172.478113043107,9584.174279548497,0.3303276893665543,31041.6521397248,21347.605929238565,11209.91767377545,67341.8764600257,25667.034659296452,224.46829265840034,10.181567664832247,21.12718806297655,3738.6177786453654,1449.9758131213316,1244.7408587268706,0,Low Risk (No Failure)
167.43666378675312,16208.654029874731,10580.252955679858,0.8430434366717035,15282.849564086604,13823.968186483477,5691.395754888731,22878.34479120435,59663.74394969752,281.08719619269533,9.568910672606638,19.899488473150583,4189.750940960234,1609.1787915739565,934.6329985723647,0,Low Risk (No Failure)
106.27916351562473,14606.14738669038,25371.114962673197,0.3711929866485244,15942.84766325362,18806.886314510302,9910.514681242936,11091.437969629324,47635.909907042565,297.7149465661014,8.543199503038613,19.350445083812467,8986.284831364374,775.3973556822086,521.6851079714077,1,High Risk (Failure)
115.05465885591073,12407.232323685093,29215.393106074735,0.042744606524608986,27746.20780248185,21858.143110776276,5346.726633336697,53728.88184287639,69322.92466164412,102.88719580686414,11.096036899920662,19.33154067675196,8259.974091141743,1675.804994984163,1029.4131893077845,0,Low Risk (No Failure)
196.18411766815709,18543.550381283425,23204.942867411995,0.19759738484107947,19415.59859397571,28198.854559794534,8834.862340014242,34353.36632614858,60248.87203609197,287.744857035256,9.750114780982184,18.26770373256834,5818.621779670599,1219.0998819429558,765.9647052269924,0,Low Risk (No Failure)
136.55857121715027,3206.4570761997106,24281.51464236674,0.7622007729260825,42511.6525451808,18525.978679215106,4419.248835491002,33218.39468909103,49957.040868597425,147.5111922463192,9.953679714679097,20.8869977950418,3830.895727299452,1435.261025843412,937.089322156002,0,Low Risk (No Failure)
108.373319896239,21530.486974334483,5182.6259292677005,0.10731866047401506,25588.877913391683,15221.764023839116,4310.950713951211,35791.3074118557,65562.12014414032,109.22299780145299,9.308407046699344,19.678556888522404,9086.504729600212,1739.676837002562,1409.2898384256127,1,High Risk (Failure)
187.07370600790486,13955.446234030393,7649.381636557335,0.14542285909543984,23426.112702242564,25266.219938902017,8235.097845443863,46885.215470472336,33656.98518307508,118.96795667678055,8.28321830371436,20.323062365387095,8281.924948404747,939.7048446091817,535.3795069703912,1,High Risk (Failure)
185.97951330388366,20184.205400239072,26681.818341338814,0.17029558425203373,36958.24702686919,19028.32640897308,13663.566088986756,66823.55342251703,61015.78066930679,120.75482943453027,11.03650430346244,19.346136096938938,6084.9299199465895,1327.0097237413227,808.3555167302311,0,Low Risk (No Failure)
200.85036194382832,11651.053337140567,27866.923689265077,0.2299896132914453,51953.67412636263,7353.494016742216,1640.7443441037703,31993.52711635875,51455.15056604918,132.5988615722489,11.21446371203585,18.12905885674632,7947.522966400891,1490.9339601940305,1343.8415328663382,1,High Risk (Failure)
159.34648284279632,28186.953999574034,23648.887341296406,0.62793749329946,40276.20186831636,23301.552426733524,12501.959013633175,37743.17910656113,69882.18747874444,104.54007315087549,9.781906741562224,20.446605854817786,7470.206874766637,1373.561138525514,797.3839959086481,1,High Risk (Failure)
152.05746770065576,22482.6161476595,23972.026854055894,0.6444780259798835,18541.81506158324,13898.936325062443,3474.775107466801,12599.648663781421,59786.17498502706,140.50947573512028,10.478855724476603,24.617474947269514,3462.117712463823,1759.2040735829444,800.3506489153498,0,Low Risk (No Failure)
177.53732811368562,3567.1471412271244,31558.48487290701,0.8042934637771141,19346.425362102556,16872.282645568775,12995.867304441632,49559.97221742906,25228.300318718982,121.58828573431614,8.600719649470335,19.097573508947868,9379.744215516526,1799.108689902946,758.6525754821783,0,Low Risk (No Failure)
204.01330928263692,11663.546735698752,29966.77341513136,0.022561650757327634,17285.26376565381,7236.206210621144,13220.982176355044,65234.319588525104,38889.85822928067,249.43982125294872,10.613749808675083,21.51469557931673,5381.507082219916,517.097757844399,776.2756072989832,1,High Risk (Failure)
122.02380887290353,22769.40141416799,27145.756919734973,0.8739994255378942,17746.517335795703,11909.838602210762,7437.832972640661,43336.571619643204,68632.34782168569,222.66561191182473,10.340098718178185,21.78266480758153,5858.1695017504335,1815.2632153733864,1267.2095207411148,1,High Risk (Failure)
110.81388724177867,27217.01460718222,16652.816636835712,0.5070476590476781,50085.796441451006,22497.969370960556,3406.4284930451895,69376.1739146201,28281.856814391096,118.14057938761803,10.293251457786607,23.678030015513453,8573.036264652752,1174.4295799023007,1228.924778518423,1,High Risk (Failure)
99.76637134838816,29497.958948148444,21078.079793872137,0.7458010487660107,43789.72744562841,13667.259425731294,12997.036560372833,54818.150117375844,12285.969821547344,279.85704196431095,9.765925611994234,24.911988504429672,8905.525878068418,1831.11405081448,511.56132010208677,0,Low Risk (No Failure)
87.80185490171901,4014.821901459298,19623.214212793653,0.4557274006802463,47244.708061048135,6745.923827739241,10775.63808628689,32555.401447153592,13684.308642852084,247.85728111524415,11.310234824013946,21.080622539901242,8716.470834706568,964.6228494332354,778.2168202942216,1,High Risk (Failure)
156.5043375146221,28467.43514418429,20710.171999969556,0.7913415240196364,21743.47142633825,27090.09361407716,10862.466661150816,18768.95832888755,50461.26924445864,157.13487788277746,8.474481067621557,24.6446873359747,4931.07603361797,1189.524462149052,1086.8963602587237,1,High Risk (Failure)
148.40015478526226,22022.469652108746,16629.797016763972,0.22931895030765392,37040.369012756986,12619.045030667501,14453.663424689597,29721.23373680888,61325.62483944938,250.2887326882087,8.513955746804786,21.45387407986695,7538.8347934417225,1545.9865358809654,1372.778172835846,1,High Risk (Failure)
143.40736762466224,29903.81506010571,19647.23388300292,0.7848372497826352,18407.9776856764,16178.835604837697,10627.9295379321,11499.567806205416,39998.289171822296,274.9956639673893,11.681326630796674,21.711079610200123,7189.802608839183,848.4744977928983,1321.119640364117,1,High Risk (Failure)
136.94242345648144,6813.602385224411,15574.263247870984,0.2339964787906278,50146.38169502636,7321.558357831269,11037.580646250244,57098.90391992996,44615.89526842312,296.37893541906533,10.211198699532481,24.078137612713505,6836.666622211091,503.726795981191,949.0734883128596,1,High Risk (Failure)
96.9729364599194,11995.66505541836,18536.459398351886,0.3282061685714224,53775.0266405214,27537.238246067394,7660.495712225526,24412.09155123699,12385.682535627453,165.32687744526177,10.473941337731013,22.456384863959677,9558.639423315755,1717.7991159312935,914.7080449644791,0,Low Risk (No Failure)
137.36730347518795,3497.36720468484,17716.992559909948,0.516676392605342,53089.854381750694,16684.811530511943,8733.306115702537,51116.91617272991,62482.033689735836,261.9677482242729,8.746469280419689,18.129103491836844,7011.557688893743,1536.2753357774477,1247.7349949924446,1,High Risk (Failure)
122.73497230473163,5171.199658719015,14457.158852030634,0.7978143225530598,16909.787660628357,9355.836022110449,2478.9484979895033,41607.92419234835,23866.897730807297,131.32442840389766,9.94085411190549,18.655714674290113,5217.958200310883,511.2997351051479,781.9104751049377,0,Low Risk (No Failure)
136.89385237226367,19484.671955067428,25645.2331016679,0.9447090508254122,22395.32705527205,22846.82613185452,8636.480613420708,31364.3994280597,32943.10049787718,166.08289419051616,10.13919373309245,24.931972985827304,9331.774886991037,1149.7162666727265,649.1100559519923,1,High Risk (Failure)
104.1476311008875,23135.270515891614,8622.150581269594,0.10786433844424248,26647.363953117623,16115.656590301942,3188.0639337457765,41813.1215720345,29756.024228288432,245.7122444498812,9.566584183179241,23.227131516872422,9188.667630641994,1525.5149029705826,1257.3453964243827,0,Low Risk (No Failure)
201.85667443847467,17331.767265164694,26257.373751949977,0.9169833971814025,35682.719814237746,21176.202284667943,12617.473851735389,25981.51093533082,22968.169508759434,168.0515999195087,8.508075761116269,23.351747247280333,5214.759087557914,855.4612821110675,840.5929847184362,1,High Risk (Failure)
203.93193172393094,21061.551535117487,22388.32697684852,0.7792051147388834,59217.449613213495,18985.369002963424,14230.500291170649,62236.950460186155,69713.27520136785,197.66217722440118,11.873486839281028,22.64280337399334,8924.053144322323,894.0229986141394,1012.3309377442603,1,High Risk (Failure)
188.60878247735602,27522.94862143068,15410.84075976908,0.8819624278318685,53130.75126643899,25580.910980276833,2228.9236643515796,17683.38985520786,24899.95304664215,109.47149605578086,8.211515836940528,21.977753113960297,4499.752096799529,789.985801202552,769.273831344434,0,Low Risk (No Failure)
208.66232320247403,13003.855683525077,18068.19492442898,0.7779861187205073,44310.29733912797,20005.15441014921,6935.98177701175,11528.585576167407,61578.340450440104,275.4482444599968,11.54613018199297,24.895036072911136,4696.697902945509,1521.3930564994007,959.8230167141221,0,Low Risk (No Failure)
166.16028305728892,13601.397935830366,10015.875636418052,0.7636043591629952,45194.75169127422,13401.276156264814,12871.651104290582,39194.83370142705,60971.56460584907,147.5202997874734,9.023680928024753,20.945233916528455,3426.560627390916,1787.6541002228644,865.345799262368,1,High Risk (Failure)
89.6442960533664,28524.261249759165,5256.643103545106,0.8951471589717278,52088.063340477456,10965.648717815133,10637.943579538587,23795.32794464144,49856.344533287025,282.90583854807653,10.12740769409416,19.908597302143665,9057.344958598296,508.5185938027063,1465.3335698340443,0,Low Risk (No Failure)
218.02393019776926,18291.498681748362,10319.337605679346,0.5624489412714188,52729.99737774964,28278.447729815573,4926.439914494487,19792.611846302854,60087.492280992534,285.248052326427,11.642752402404307,24.403576098268395,4181.613897076228,1975.3957781799916,1142.4902745976206,1,High Risk (Failure)
208.72466307965215,9746.019226332995,6126.682092205687,0.8822810950453831,48469.32034138006,27362.28862186979,11916.370805025263,23185.18713164718,18903.68546545713,292.6035993615212,11.220922957387488,20.935785088751064,9379.502902443986,1688.896445812451,1441.2669281281583,1,High Risk (Failure)
165.5076739331196,22335.821616565187,20719.226080571418,0.9253549070991179,36833.41212939822,15255.133624315535,6364.417274616864,55403.97680899131,60236.59539939513,225.51828002489228,10.032481709530316,18.017777706450342,7913.747152734035,627.197488664286,558.8342644698103,0,Low Risk (No Failure)
79.2331566592922,17071.256408015164,10429.191919340068,0.7357404498934492,40076.18482283454,9676.129091748204,14314.175200555086,49057.859324223726,62657.39221395107,281.5027956726058,8.545305745997517,19.28662622513497,5615.750590351317,1792.7290544383256,621.0095376734213,1,High Risk (Failure)
109.80923186496058,17083.994245123205,34142.05545825939,0.7501548237949217,32751.48484419534,6080.07160880435,5837.822540284228,41095.294726271924,20628.625222322742,158.42268250132173,10.489864412250476,18.272821400315955,7378.251874512469,690.5189248202628,1157.5498251634972,1,High Risk (Failure)
189.8890749361418,22727.29778763605,27824.930900583517,0.16770277598972694,18311.08371718882,14979.562399227565,10450.961473617826,63445.450053712244,50092.76843499999,245.16101034306413,9.914186754902062,20.110049466913686,4144.097607315699,1942.0063236534,694.7187653410373,0,Low Risk (No Failure)
190.1957349955564,5234.490262171139,31948.391226313848,0.6554657014764296,22224.927418897852,17330.28598929973,13286.376117980257,20280.51469136378,22744.918050829394,245.85960803627262,10.28227724301287,19.57026937980928,8202.734970033971,1076.1625401383749,615.4377630329803,0,Low Risk (No Failure)
143.35327636352673,15343.314530149004,18049.405936641357,0.8453351220226424,25676.631943561068,29013.78707011901,5575.143679050576,54925.51095237787,48189.012228282605,195.9926874447325,9.086953479058291,21.373694763739504,4921.060296887704,1100.2715779096661,799.758164104931,1,High Risk (Failure)
177.21153555364003,24348.457053885282,12398.52268072022,0.9336165192303673,26309.353588184196,12066.370804091915,7286.489527698662,31981.42689342093,42206.902519854746,109.27125326652951,11.319263922676615,20.997968922483413,4353.450765144883,1912.0364896523388,983.1914078537357,1,High Risk (Failure)
159.93824769832506,29589.89477191719,28231.95611051767,0.37410573731650554,38721.956531128526,19658.811695628472,7771.656237488946,67516.80708002004,62652.0612730993,288.00397592857195,10.354746628656148,18.259509502832238,9772.202144646673,943.052626168789,1018.5451341659923,0,Low Risk (No Failure)
131.9655438114116,28369.449489999668,23702.95380330083,0.5004194958350817,29913.214412735477,29285.9720009148,14638.12709601269,14162.339196368022,54172.90893124158,125.96992318361053,9.680962330703018,22.207507454986164,3386.028357192251,1818.428129822763,1336.4125340085607,1,High Risk (Failure)
132.37092552292802,9048.161342169384,33345.06359062212,0.19371594227956035,42580.42966416831,26201.89040938957,14232.693872430324,18740.72852308325,50427.88677813438,223.99473205007516,9.666814971180644,23.693008320458,4971.329065955147,684.7400444278362,1355.3693222929192,1,High Risk (Failure)
174.245223114697,16430.517894202327,34080.48843259476,0.0035489918647713115,59104.17212366738,8553.175922896915,4776.776040645571,57446.876128252916,36552.3644309148,212.62817379038327,9.157894076897406,21.31782289537377,3467.7620662242143,1882.0528709891319,1198.9922182571518,1,High Risk (Failure)
180.82196090777904,8977.867565214608,14292.937495555612,0.9200008347496549,19563.366580688886,23477.61340521768,3212.6801564223724,45480.43799900081,65955.8798069425,145.62886491443942,10.947811423820589,21.494324599774572,4587.769894530109,1321.3086707295065,1252.5792113728735,1,High Risk (Failure)
173.1338363626717,20249.957094301877,12461.214678994036,0.6170765300062263,39642.359373810454,10586.758141889459,14835.931457257406,28301.60463327123,12805.884984206063,240.03417783413926,10.526018310572763,24.56167323957557,8733.780253890222,1711.7203974269073,1196.9397551849925,1,High Risk (Failure)
215.9669059434853,8050.611382257392,9940.107875219153,0.6468602240172217,37548.16443182747,18019.35596596304,12016.078132366518,25195.43616773642,69477.94472071921,287.88488178178113,8.414465014642857,18.30969719968476,5068.549774933057,1665.3607940714724,949.2977020040493,1,High Risk (Failure)
217.00753447955947,29545.337385607196,21955.197686718122,0.8026304216000337,38795.757531168696,7347.948948155512,4538.181705142639,16346.564232998231,17785.517596278132,249.15536433871912,11.818134917238687,22.376656361986328,3520.536859267652,810.6149595765874,1434.2980898979322,1,High Risk (Failure)
150.14533831741664,3775.0133656820335,8047.164309339838,0.050168843498688664,35242.04740730785,25219.53865349236,11703.696303566025,39353.565212238114,36610.4033983227,179.20827359322593,9.606392438831467,22.868496971986193,5327.649122303819,996.473341834172,1335.6880060563828,0,Low Risk (No Failure)
86.77712515788497,5106.72916791908,29985.292786005124,0.18514088504203552,29782.451386402245,26821.98283320833,3773.5073036780695,35893.54427026502,57397.158300823285,268.6791476099203,9.856703061482504,19.922399099133738,6263.486637898584,1297.7813880892854,1278.3081779522236,0,Low Risk (No Failure)
72.55293061073984,18304.966713080295,21011.619840562416,0.5721377471653535,54419.429926833465,18031.655964061094,11029.221621144718,64845.836637681765,15476.965152206945,165.059278528854,9.836655899156176,20.66034178652454,4996.502504899115,713.1478151678153,969.225786702382,1,High Risk (Failure)
84.07556336095959,6106.589350371763,15206.757245671759,0.8475320034620177,55306.54958601832,24501.04364591912,2166.8941390064974,19320.34303106284,55017.31129893753,219.11404097970524,9.087815040073739,19.190896489606647,5548.730064618347,1191.9855627463585,798.866484847121,0,Low Risk (No Failure)
98.95716745220788,29442.074057276695,26279.71558327902,0.7196895960453545,20546.082251263077,27780.8840814537,7497.259032479088,22245.500724439655,43561.382086985635,254.85415599743695,10.881494900835888,21.576184738630857,3131.119760646682,948.4979698319909,810.2198179190832,1,High Risk (Failure)
184.327885704281,13996.66532770106,33597.645671625025,0.6522565177735441,45594.82342972202,20410.320502329123,13391.818711010586,14815.875431514854,66693.411576262,173.30182554139714,11.355782752963949,21.39192229809983,6776.848494217618,855.2696559561821,1068.906120072077,0,Low Risk (No Failure)
104.92357799053693,21059.883309905974,28192.70424851336,0.37579490228805723,20317.318734027733,20881.478466173176,10359.320110503533,55348.1727565562,24337.350996729034,123.7058545697625,8.689146953568596,21.327247732576524,4357.820184610547,1605.2606636031921,1342.0194975661152,1,High Risk (Failure)
100.71701305892164,5904.013112198893,27698.07494881564,0.9585186081814263,49258.946195357064,5477.552112421265,5563.799811308494,31610.322986282812,33576.85382451199,219.15993548436296,9.809877910273531,24.457842258146968,4697.837378568011,1555.446089255411,903.8307927501162,0,Low Risk (No Failure)
179.72155046138533,6582.301368438984,10183.689556473895,0.43529133149533195,36232.775873018734,23274.12578964828,3685.170121517935,10106.317079257358,13718.083656347852,149.89907584506105,10.17100911099906,23.568005321694095,5318.035210207478,1254.1006036516972,1109.523436431167,1,High Risk (Failure)
171.6532456808272,20065.88548814648,24380.308728400967,0.24681174515403614,43117.90339190043,10839.994268530621,5200.277393785352,12917.82183487406,55154.03767801574,103.1984043163153,9.066578471763581,23.030561282066945,3373.98659371359,608.1873597461516,928.3388512611454,0,Low Risk (No Failure)
217.3707530421861,29768.463112508234,19205.90488539435,0.42231387785603225,41764.65752747207,23633.757207812898,9634.54657872401,64369.959838799805,18688.988793456443,274.0806854372462,8.574217104604191,21.429491599405523,9312.604726788413,1819.496715737002,639.057075023051,0,Low Risk (No Failure)
197.54325525641704,16474.10217320185,34121.844919573836,0.4914782344184464,55230.243662909226,9561.437166287275,2290.347273719806,38960.855726283495,62795.09483960271,292.8211710603481,9.873699833358707,18.20542953454833,9941.082350032735,632.9797966909623,892.3289616687466,0,Low Risk (No Failure)
157.6011867327177,13030.558658746253,30871.41153572822,0.9384664626177631,32604.154877149136,26044.010205332295,3414.9868402868506,23339.60147226485,55024.65391907603,106.73264083392667,10.96102045515191,22.756719372549398,6658.30726325785,1983.8688583122448,665.007454823346,0,Low Risk (No Failure)
93.0133949449268,26221.18066069738,24462.408117099625,0.7839169288465484,15743.522840393696,28012.565653340454,12682.871142187281,20343.60665281939,42426.276058863295,252.4928094985014,8.899381429435666,23.095098412370994,6852.687083961749,863.2830170116938,1179.2255218807518,1,High Risk (Failure)
61.10047395514389,15979.848801288605,7847.960286968542,0.025513548864769642,21524.683101888902,9807.316695682017,14285.37661053268,23024.059428300556,69514.3814703766,101.43010128455185,8.942859866773354,24.45588838248707,4864.138056854157,1497.9236591805998,1167.0640443683408,0,Low Risk (No Failure)
157.65340532974693,27147.305655104443,7510.429647430919,0.6311742040090069,22177.07852240445,16731.796159073227,8559.641224162157,20601.760532503893,50092.71157344733,110.69569201038001,11.910281762206402,23.47670997824708,7052.378523674941,671.3498669130952,1294.006295597741,1,High Risk (Failure)
68.05592431509652,2174.7660152983335,13749.76311502811,0.05613158802107232,28962.087840594708,29846.20157138461,10422.011667746601,17363.630252369294,25381.434951034767,289.57339906562265,10.998435263346266,23.153268505485755,6253.40083732502,1659.5843173192134,530.8150599873051,0,Low Risk (No Failure)
167.37490513375616,13869.723799187735,32759.89210623795,0.4949323243392362,25226.01725496276,6546.79402229371,12625.81337196897,30432.196694415376,16932.35538826535,248.66353891665545,9.92536189907144,20.496905391102715,5129.030676826172,1365.0539640294287,931.1339396817118,0,Low Risk (No Failure)
214.95820441510142,7192.5868586345905,33078.6546118581,0.03133746067672627,44748.769527098455,7982.977597230271,5436.642061995001,14470.148141090987,55195.32351720565,278.60706808844554,10.676621049414416,23.592424398510417,3029.5904600616927,1183.5567136930267,755.4754619794963,1,High Risk (Failure)
137.1411358271747,10541.166160204753,7223.575231578741,0.8288222571053818,45118.06071689337,28099.442034148513,6714.413442234513,47802.90921516697,58062.38381388846,162.8859731479352,8.822051184718864,18.95498999275204,3474.084299773986,906.7636902731161,801.4502547783429,0,Low Risk (No Failure)
162.47616674813503,5889.372404587069,15346.6752251955,0.7876011464616444,29480.860886442395,10493.806094814721,1085.3426697461732,56599.3265342383,55102.93021211545,109.43476487887231,10.16396775261472,23.199831107761973,3742.610215171181,531.4679306853943,1107.4076696512082,1,High Risk (Failure)
61.93649868417719,28275.581731985483,33842.93937150011,0.6273371104253198,21456.406686039663,6389.061817940448,3185.1645509456525,10844.74553125617,46918.03125642658,178.15750760492134,8.6058847558834,23.89743913517965,8468.290951471188,677.5387010080643,1138.3215552406787,1,High Risk (Failure)
142.5379044339725,2549.6034693394977,12374.81397899649,0.2807519507463412,50034.38167887529,15451.290074075561,8057.5249877944125,66613.31897382278,34767.07379885946,262.7963752278753,11.66441742785334,20.654655886565045,6106.140262031029,1539.385466812492,1003.8377063242053,1,High Risk (Failure)
188.91432410691488,4688.291155342817,34212.446423538815,0.44389758599256546,54768.118026122465,10853.93326859689,10429.336609252021,58734.647092414074,42751.642353885574,251.94978912646357,10.626296493955655,19.814682362044312,7918.414082467627,1986.4585559973923,1428.9766308644953,0,Low Risk (No Failure)
175.5604109428906,5236.8004006982865,27467.52921435559,0.6427419004014251,35415.143113519385,15264.985542244362,10908.687093155806,13639.578269660675,58007.52925068229,209.78289064964196,10.140964750508868,22.687193089245998,7945.203915234907,647.8800423244693,729.3508089831389,1,High Risk (Failure)
90.41722396539642,8640.729925121599,18049.525375113888,0.7724077221232417,27828.097821253126,22516.605143082255,3253.191744653144,31524.35764096162,40363.65091818659,177.68454179573314,8.707702456175221,22.767195334494094,3631.7149237628655,1868.866094826027,577.7108101660452,1,High Risk (Failure)
176.58500547785644,12647.940647167028,7983.847923565696,0.12485147843328437,50409.16211333063,18527.50129318545,10778.844956563507,26448.238818571193,36019.381046301896,150.50002176637986,9.955680841548148,22.061331418833582,5906.408959826043,1654.0074669264193,876.0266430766335,0,Low Risk (No Failure)
188.44974957192008,21442.422849208746,5803.117571093835,0.5761854125072724,54015.6785312404,9398.073233257051,12056.876703526974,60473.80573660453,34312.47168747257,242.14193245174383,11.816650917541107,19.66285424195065,8109.711382719114,1328.2534129798391,1066.4306017734675,0,Low Risk (No Failure)
203.9733353099636,3277.551040991162,30101.32161750385,0.09325486978537079,34714.71553414093,29025.221222770546,7339.3785057609675,63052.552150713746,40254.3561908862,251.63732767287343,10.25519867431603,23.883727288170387,9589.131693475596,792.510308823846,607.9850667202386,1,High Risk (Failure)
178.71643672223775,20495.625258044416,15027.901243376276,0.9515481136767396,52981.84110507339,12829.20887706869,4024.2460911490152,50792.15391856836,47055.95942396806,105.21297851455293,10.741335981219258,20.214863765311552,9793.026508590188,511.5269344612659,1022.8156192394548,0,Low Risk (No Failure)
130.76700887218163,26010.58977409355,20618.673955143553,0.7656132840221652,17897.28476679064,27235.36974803419,8937.995124501043,35474.414154736245,34773.51641775193,217.37278505998086,9.292848459448365,18.24236490554774,7819.171088936574,1469.0134386063387,592.9351460256161,0,Low Risk (No Failure)
184.85848048110108,16530.135566492943,33750.457508928266,0.7315256152685815,47803.44421940465,26546.600407072634,3619.8598957317254,32329.665989110712,23038.950978213194,213.80752322648678,8.950696593310704,24.247238615494553,7890.471917496373,1864.475378846253,766.010467084966,1,High Risk (Failure)
131.7909796196049,21726.186581192043,19476.15222400018,0.30224939491319747,19954.28873678489,22540.05233675293,4737.4671614170875,16317.556392268321,31913.12524944207,145.21421553573566,11.965055142805745,21.84489075879165,3644.2451262871796,1403.1304072876896,1007.1129373486559,1,High Risk (Failure)
203.2900557010942,18681.537670566035,7363.46213011743,0.05061084075717348,52822.03004739082,18972.744671850745,12493.088696584104,45018.3087710588,63072.9712786773,259.047843562044,8.768395134270161,24.95750774648639,5569.177613526628,1621.6244473050197,997.8264917277166,0,Low Risk (No Failure)
180.3799247100288,10301.273887035566,21779.056162304812,0.3556873898943743,29464.608538815773,27548.286477323287,11075.56414315765,22409.894863908718,38902.9791551529,201.81213766006934,9.077533796936939,24.250433050155262,4614.374550486775,1561.0723190397293,861.7127349906398,1,High Risk (Failure)
142.23831826556972,29292.45565554292,23900.214063395695,0.873907238785167,47044.9019784109,20087.519891876254,11652.354076436497,57149.981503084804,15205.396364057782,287.86462788906596,8.009535228648236,20.158163390270776,5780.249365673492,1840.1046310080617,1318.66380303414,1,High Risk (Failure)
76.41087401337437,17738.792646254282,15356.120931193527,0.6706877646636611,42495.41618043851,19436.822452986897,9327.5575792974,55188.38434790659,66712.44176411143,251.05646448604065,11.209818381118737,21.956798126881083,7840.7510927047115,879.2298949331503,1411.6097596692944,0,Low Risk (No Failure)
139.99343871436616,28081.905077786443,19679.92494872708,0.5413013162563218,34320.4231784845,16618.594607486626,2294.2049678675703,49260.68494819567,20663.288430896624,229.6781713438126,11.218630804270362,24.533847901079607,9313.8801302883,680.1976151448341,1387.8826517486127,0,Low Risk (No Failure)
104.8059727280783,8330.209938583757,31946.705564964865,0.514502164857092,32598.099561813895,27997.02556321966,13645.608378768655,52466.280934524635,23236.578558491063,141.154327454298,10.019408224508654,22.85178286702179,4863.24083808208,1892.1915868831343,1115.1604558348351,1,High Risk (Failure)
219.53992002523378,2485.504595725084,16513.217910668714,0.33811092073613214,16268.564197344132,22384.463350149603,8281.436996809472,14272.270315389622,30240.04132471745,121.5439402918165,10.343928056094462,20.90433656280062,4926.382124758692,1426.7459279925063,1369.3827503152008,1,High Risk (Failure)
109.26879065459055,17028.41281132066,19875.200933120723,0.6955851743035442,39504.653417061476,25375.462446756268,1130.9369375325382,45266.739509110295,23950.385344404,155.94413164831366,11.918710666161157,22.525048260183862,4267.772600041235,641.1194825828068,1410.7298319849904,1,High Risk (Failure)
77.44217850254859,4026.772284402041,25934.140954832255,0.3708340845939895,43225.061230859224,22576.209891746938,7129.061690221043,21405.90807642861,22229.887348671666,121.14917158739804,11.907941524585183,21.194505216956674,8663.622651817837,1644.5928602205431,1291.5318194336264,0,Low Risk (No Failure)
142.9921591008952,29218.31513591067,29830.382216106216,0.6622475475214803,55053.74262960411,28609.684943158074,1431.321437373485,59252.75107934358,46413.16451150292,286.2365855082161,11.851975327306786,22.358819453426953,4576.648349082564,585.646836516948,893.3119570325214,0,Low Risk (No Failure)
146.51175626318565,8096.752313687327,7200.8227855075875,0.5373102590036105,48398.05672328204,17488.384943601006,10772.345950633031,37147.99172612888,27469.332597740682,255.21049979577143,10.885288452085899,20.007518506607425,4962.155936108382,512.7023912013552,1152.2351650993091,1,High Risk (Failure)
172.34337538909273,10655.557161908826,26772.766263598267,0.2905032471986191,44772.517342877654,29828.925955638384,5134.790831764694,54740.0102293629,10901.183684440824,178.76210938905518,10.065665791760749,19.115170031848972,5909.957527847122,1705.2044614455008,943.0012651859192,0,Low Risk (No Failure)
70.16933604576379,7954.778613991117,19910.7094333162,0.1191570455404648,50826.77286103834,23865.15914090884,7147.170064419769,56389.04451333581,49893.77833434986,257.4815851760816,8.447595083534274,21.749538182857695,4080.5825326341464,1229.708960053687,706.6330886184334,1,High Risk (Failure)
92.85327019308797,4692.044483655025,32829.14897570442,0.14772830585057428,48474.73999241259,10988.783727328115,13639.738697973746,34634.01671763521,26379.17026947054,252.9752971182353,8.21645578630363,20.235329822966328,8070.265675315788,1408.4862007612965,1339.0753349421332,0,Low Risk (No Failure)
152.20613762669012,8879.810368047212,7003.91231786516,0.5687279416481599,15142.529136228015,18166.390404073878,3502.0945035401724,17023.63742468656,30450.077647960687,118.15453565367002,11.277373508322754,18.598009081349034,4968.755285754312,1893.0502360275639,899.3630823117294,1,High Risk (Failure)
147.4288505724556,13721.479207288417,15318.818407507026,0.7385498743701094,19714.373595650348,9410.189651746552,9994.444682556123,16391.776972518805,44953.52763458446,168.2241026813495,8.298267616439846,20.6112678098834,9972.862118767454,1341.8433937858174,1489.6413108154577,1,High Risk (Failure)
101.8132828616614,28724.571604110442,15380.072389168292,0.4188706622460472,43625.042574132225,17890.77638280081,10181.079976923076,10767.333655125323,47544.82387378848,170.76657866604518,10.495092611262358,19.883437862672373,6129.062350875734,1142.78286495259,1355.3278398717653,0,Low Risk (No Failure)
129.99598752379666,22034.465331340467,18022.13245447941,0.3218275081690799,30284.039538240664,16109.590252187993,1443.913062481871,66486.37651528526,14874.974900173173,112.43252652896321,11.638303148128283,24.870827832989033,3424.260476653688,1771.1300769017867,1087.8416657821813,1,High Risk (Failure)
179.53252274064462,22893.26580459154,11442.781998874161,0.8288625731675517,32777.043853635056,13349.98549875037,13393.676036758132,16992.798032233484,50144.67084324368,155.527436359351,9.369799502472915,20.008234909570493,9172.901441383616,826.7611431056778,796.2022337696147,0,Low Risk (No Failure)
86.79857425505723,16585.091219394402,21748.295732117476,0.3134105862196249,19311.521084555865,7897.4929810688445,9041.374249656366,46980.26003416761,25341.107008398307,129.17059065217023,10.627993260622585,21.903463298790555,9497.855152211312,859.4377512531155,899.7602088113816,0,Low Risk (No Failure)
192.24817187063428,20106.806722578425,13430.837788106073,0.7433612504879242,47482.92373898579,17535.934005280807,11262.534991013954,44047.939646194034,35103.97357817968,218.43699802598823,10.07863258566917,23.539466464902922,8922.840408939912,562.4579475862066,1354.686876558101,0,Low Risk (No Failure)
125.70922128164526,21820.173685054517,34566.21442022117,0.5623363273917781,29865.66053582231,28916.552018619237,9258.781900338194,39734.14067623296,35656.75341962956,118.39231053983232,8.513391366146148,22.142232020314406,8903.453839756177,1720.609063566916,916.5208873403233,0,Low Risk (No Failure)
95.88308951368957,22929.574789096634,22111.619761025922,0.05815112056640115,30544.962425723133,20833.696254729057,8973.248058989071,21337.878552122922,24288.234126645595,221.30954777623273,11.460713716175905,24.623291362682988,3114.276383676706,563.8713129149072,838.8876990352858,1,High Risk (Failure)
144.2244257497781,21982.50262660157,23063.05490382049,0.4297008070431598,25446.252856439976,19713.852218018597,9961.779204754319,30674.36858214736,68136.45570783966,260.6615994525755,10.854076716204398,22.625775952150555,7008.453937398982,889.682832913762,735.2870587904133,1,High Risk (Failure)
168.55999492682204,25022.96622244774,26357.112273239156,0.8469985997572684,28546.173916876447,5560.189911984183,1447.9792615472786,61295.07708883368,48115.678280633656,209.59152237157508,9.393534971941802,18.96676761162103,9492.596296634467,682.5692281643225,1134.550792870793,0,Low Risk (No Failure)
123.44858911839411,10130.393506853325,8308.301848297006,0.5452534462619704,19938.18512456025,14636.14877291491,3854.9157426458314,58039.47452350692,45118.52773958447,156.54227394433886,11.067431575719429,20.834545659471047,3150.0923873782444,1230.6631192596183,615.6007473425917,1,High Risk (Failure)
119.06179100947271,29049.182997439784,29882.006605968072,0.06366333324100759,27238.070170964784,27850.38730091378,2983.457341408606,30654.75396821439,28579.62877658677,284.8490245445869,9.763478511442766,19.466214610428654,8310.766764791533,894.712341557263,847.8755632870514,0,Low Risk (No Failure)
64.80416085270285,29194.66156727437,6679.4085458505915,0.4054714728869787,49924.2428798246,27944.406309322876,7612.709052540258,38697.67932897463,28497.951536624827,259.56757385627486,9.298516207450875,19.711438368547405,4256.160645882066,1788.5074411861492,1447.44197855949,0,Low Risk (No Failure)
160.40929281345015,22083.537283409885,12343.685570882744,0.7226497023608565,36766.051181915354,22320.89335356479,12610.513459942003,55169.52819434037,67738.36268168796,257.8418611789757,10.573178391067287,22.416683985074172,7118.876968916647,651.3798253525272,518.2268849675415,1,High Risk (Failure)
132.69526769082483,8315.332181799942,27859.092337914604,0.6601194442631304,42349.79507448309,29074.315643567916,7132.2173114949965,50489.4745492444,56475.46186663597,250.97794232925358,8.054922366297166,22.43172802813815,8193.937700851864,637.7259257076605,890.4169431645412,0,Low Risk (No Failure)
170.82015235618633,29095.62602675633,31880.850959749794,0.8266863036714514,55710.304688928154,20952.57522843156,7992.814828870118,44390.61968892976,57216.82169304553,149.29356342370502,9.923619409039201,18.082618715329115,6105.79010120065,553.1475261624413,1243.2968902773425,1,High Risk (Failure)
173.5022114919018,22593.506691098024,21154.27929988118,0.6292001574496608,34612.84966434054,11593.654881920666,6455.230608197741,66057.8139422278,19334.17746013827,122.00266955797794,11.247714804234201,21.904459123814448,3319.7968090734444,1080.9939871137708,1435.760448069267,0,Low Risk (No Failure)
72.13813249738622,13379.947106875776,7250.662666787545,0.20788805526314447,30534.319537589956,7848.64034201281,11565.925701009925,56255.17655907376,54666.589370628666,278.5273632944128,10.334977024168637,18.665266701399734,9157.545219133135,1389.9241281154773,743.8025049535806,1,High Risk (Failure)
158.90491749089904,24979.1675680275,12874.533641494301,0.291653185394699,27429.817582992742,28388.032136610076,5798.081816891711,37748.782746112855,67194.20817466374,225.7842370292297,11.562544779115514,24.001564434737503,4306.992389193352,848.5670797996014,1484.8280059757824,1,High Risk (Failure)
200.45281250432654,3158.424134716954,33734.57971439777,0.32158394036246507,15156.080665957292,21749.28372252349,14345.243749099052,55474.21213504104,51077.14159115631,125.36630703593939,11.940047305847925,19.805652986868548,4709.984453814207,1070.6144235829438,1237.6826919922066,1,High Risk (Failure)
193.3839939100137,19697.945071112692,11959.053564733575,0.14687187583320738,48227.647437876425,22371.401994732987,12685.437703525091,51597.73493318475,66126.83377898268,142.6363849319665,11.881484005559312,20.576736594863817,3388.9085901559324,1877.8970291293144,784.1402933110655,1,High Risk (Failure)
190.7315313518848,7826.11459505237,19277.8009209489,0.820027822265425,27264.722777774045,16166.449664522526,11989.289064318007,58494.65962488923,69648.91537174658,176.2012213196155,9.499306799108727,23.930471449827717,7664.244550305692,1045.2823940877797,1392.8689621553995,1,High Risk (Failure)
97.89928943591713,10382.2137983741,12610.904899874324,0.7631743856097388,22883.90344071726,15564.564217597803,1685.5993799972932,20111.06835028567,63671.37401236971,124.11435534446784,10.77032233444292,20.003967660756917,7866.954752966712,1368.8748799106743,533.4490341908788,1,High Risk (Failure)
174.01941329576204,21650.087775189986,11403.845484169064,0.9409566212589349,55449.858923796535,22214.60722268792,10571.15998249005,36160.49998515,30126.719975154923,146.55671426001797,8.61227624352505,20.86849075621653,8565.909714247911,651.3245560770413,1376.3828608528218,1,High Risk (Failure)
194.74646026406097,1235.1377097001837,20800.680767790534,0.5955507012324858,15255.970058821966,16391.228024724493,11097.018267786072,27515.85770015289,49695.72647418919,228.21834100545152,8.26652445363954,24.735231468641224,3598.80041150974,1519.4462733173073,1083.817177160283,0,Low Risk (No Failure)
162.53995916851434,16234.22966907092,23775.3999815183,0.6102489782898048,53736.05414994958,24538.0787765464,4272.297445319649,33602.478498933546,22072.667023824113,239.97344875295104,10.853841147641397,18.858016500503876,4093.1602299100264,1637.1783507781947,1100.3877957126078,1,High Risk (Failure)
129.11120298273852,17232.595178676573,8024.215914172558,0.19275201041271228,41958.21796508582,26945.47931425179,10259.232309255056,43772.32452964043,10534.351993098397,135.22572133798528,10.430563130461529,21.889054348956808,6299.872373881593,1401.0619720807986,1077.157908406934,1,High Risk (Failure)
200.39373802086087,29684.63425415327,20864.156544702993,0.34093588031419564,51105.47995418788,16214.22744576906,12273.251875897788,48404.31546922929,44456.44721352912,273.7835140177925,8.402555567687921,18.635460606516656,5234.022431234984,1505.6585181959695,721.6529552412192,1,High Risk (Failure)
218.03558235776504,9905.544557447212,14006.813346241592,0.8759339254453248,25952.247566727397,29434.072697715907,8654.023243226147,35104.02874073577,44764.1697980237,254.78621404289598,9.294423207429595,20.21966049094113,7677.50158125925,1088.265250354034,1299.054669405651,1,High Risk (Failure)
164.14037904755105,23158.7720107875,12169.597632670295,0.5258929685789998,56189.70316194419,5979.594550281271,6016.525669847898,15660.115534778733,17058.336033657608,253.92636718064833,9.811881004566882,20.02083513843845,7924.514679404125,1551.9439679583004,511.8326814165286,1,High Risk (Failure)
184.83402376570137,3892.0599117476704,11292.169818156977,0.5112140674591639,26619.13317608562,20111.022908547347,3174.376314665358,52308.54633691582,68935.94975717354,143.53500635178244,8.313889249006463,20.70666983600796,6854.815887852328,712.4665415715288,944.738549239378,0,Low Risk (No Failure)
79.10096181411149,27027.756218142265,10333.950156957462,0.04681395723422754,47713.48550074679,23695.60527962416,7490.072781341408,55871.61614091663,29167.090102764956,145.23871473344641,10.937228242200447,20.612679701205856,5730.849635026539,1919.923670573985,1136.736009039732,0,Low Risk (No Failure)
123.56596648965876,21862.256511669788,11068.19545226091,0.8977052264725804,20200.32584130012,20916.82170003459,5523.532893645626,14963.505412253427,15287.140799769593,111.77332151225512,9.18390699578833,22.819515746333693,3125.506696501958,523.4098663962325,1204.9759184234526,1,High Risk (Failure)
93.70595024090665,14506.041752357429,17865.630839199155,0.2604875790573491,29899.24314001601,17582.750772023726,8486.944151216405,34570.416063355326,67213.59290397831,202.8931629290817,11.644169938398695,19.96281081563738,5524.700945884506,1129.1639118585235,635.3576592554075,1,High Risk (Failure)
134.278163158276,15747.62785343353,20381.696032206564,0.2873799152555684,44117.79931720722,24600.830904578237,5533.665893068951,40851.12969495653,26011.64624837956,216.38272972140487,10.39493244940148,22.428412942746547,9581.17123345764,1473.3070679259156,1296.8474418772212,0,Low Risk (No Failure)
161.82566580220487,17750.779338476877,23526.719396288554,0.05768328458354377,17405.498129243926,27521.83981342942,3621.50506387979,17414.68573782332,53921.841491467414,298.7768501555446,8.682517414805742,23.335624523211415,9503.84971224051,570.2533391167045,958.5331087280595,1,High Risk (Failure)
120.8997269562528,11023.18407404861,15101.170066926004,0.5873835952686471,36475.79436640191,5183.440630578366,2989.8339116887646,19989.43993949983,39943.83489600508,142.25646799092388,10.650485816360375,22.745477906845174,4116.204429684686,1465.3866004378062,911.2409297570312,1,High Risk (Failure)
61.87305771694465,21430.315455938857,28244.832999638642,0.5654721315502503,41339.8743850528,14592.597489092741,14219.123981844496,26619.896800843282,46388.16448572441,244.13467317135053,11.50555610169636,23.412415281259406,7869.664418962484,902.7312884972459,1221.4930854168542,1,High Risk (Failure)
218.71403955818292,6834.016046303122,34540.56661745717,0.9161108438696377,17781.12915355656,25149.594870708166,12006.759441567854,50308.34767681728,33830.0836798767,185.13194556762267,9.382344356960733,20.161306228664884,8523.338564645666,779.19672432682,1230.9289198737415,0,Low Risk (No Failure)
165.29635488903872,10489.414311682163,32479.760040862322,0.35706613875330606,43694.89280652556,29121.848641987657,5783.4361944746615,12026.076141075222,54891.3358958989,244.56525184492475,9.67057513778481,20.74398272449275,8828.4255604287,505.34713254747834,1319.945809039261,0,Low Risk (No Failure)
169.62148957991747,3748.2856600032246,19116.24458137926,0.3299300208424748,35833.81493155705,5280.275581182007,1322.5525569705678,11859.55479645009,56582.96948468992,112.93584514532084,10.133952754850661,18.94283329687984,4071.754810147558,1352.9355575541636,1468.8435317656056,0,Low Risk (No Failure)
105.94207329353209,11344.971909958284,23494.380756237333,0.8614479214043481,53791.38934320794,8014.655402955874,9916.630699375506,45644.03101523139,66630.63240787275,138.55084028318785,11.416011871889019,18.728481474405726,3689.439660569894,626.3059005613908,745.3378549608112,1,High Risk (Failure)
151.51934052537484,27493.762330678153,7195.252963040063,0.38655787373149264,45848.76067548763,10025.798258310535,8467.60448910718,17992.13058482523,44997.37780184218,273.61487728512975,8.03025365856243,21.088953634798294,4101.561874431905,508.9787334207807,1198.6831849271575,0,Low Risk (No Failure)
70.01037475511225,26465.34071258534,14125.474328855484,0.7311311089644235,43783.71941865731,17086.08996036433,6625.86670385861,50480.65771069215,67289.83838459823,121.80659748390667,8.710624018813377,18.701908853908726,9709.424715031946,647.4522285749593,708.3778394621286,0,Low Risk (No Failure)
88.69696164627855,29872.521852301674,24733.352217145355,0.373999367025596,24029.088400022752,27460.581071606608,8648.003288684993,17958.581441596092,34290.05817517954,116.38507794332699,10.733476764266488,18.48490094811965,7990.812795245237,890.4255112969364,796.2879033702415,0,Low Risk (No Failure)
123.70699097455093,22224.309381308525,8857.317823906355,0.574642070621839,38011.14549300079,5297.160221184592,10261.886644367523,44060.07306187917,36393.67118808087,125.53754235543337,10.186339599374719,21.82541441981716,9808.44339459483,1249.1249796232205,931.3834141955856,1,High Risk (Failure)
98.70906885048473,16134.006564633184,33437.51236803491,0.3624106418133016,25402.46188442641,27939.56960074603,13809.457948150597,63518.33421022723,43827.05776115277,101.60317837644924,11.762202320708365,20.384016304781404,8521.775615254986,570.7608576029254,641.5325017560538,1,High Risk (Failure)
214.02374634846802,28899.696469299193,6606.339526780247,0.012416089169423494,57710.946881249896,27996.025599716908,9664.49123593865,25966.244983243945,28436.976734006304,217.92335397028955,9.484374207699055,20.892377741085113,8624.833043213539,1091.2570181648373,520.6733488749297,1,High Risk (Failure)
66.23325541575427,9897.034210192936,21528.32581521809,0.7091369915594256,49327.29898774325,9331.247193097148,5718.892304166713,38301.36937727904,14803.703063235174,240.21099285472621,8.805569161499534,19.52325296842103,3260.820651684495,1036.8387354997317,1333.1419675119223,0,Low Risk (No Failure)
76.49981901374922,8075.863768221695,10153.673284333005,0.6228292369611795,48154.035539914046,17835.219444391823,14018.130775509571,12546.105447742397,63232.65958250181,104.1048364290177,10.89515508559612,18.176085014418963,9979.444461217703,1123.0903939477723,690.7526426650436,1,High Risk (Failure)
195.4422941904445,23657.428774765074,27729.728498089175,0.9547775524252154,28650.09220777442,21624.636337217005,11484.571392510261,25284.22172404691,59563.6526912325,203.88422187236918,9.659811228509591,23.18080312365312,4302.922543429551,1319.6460922867145,1485.051572076422,1,High Risk (Failure)
93.7127942187525,17975.887260937732,5379.734854524866,0.722233256187194,44679.61477916878,19825.373981807148,9246.045609068795,13081.300945546403,68870.46540162907,171.76688378753644,8.76954806521381,19.074583501791658,3959.317649951564,1435.3162525919986,1117.268563237028,1,High Risk (Failure)
84.69803444387237,29538.594455028913,26821.918815378547,0.621883161454933,59136.746212288665,20099.97322488604,1927.672768322067,56173.09429563386,26221.625945087355,124.84178575711802,8.217906556152075,19.706065943279217,5520.959451024144,1432.3640755714846,791.7623138748262,1,High Risk (Failure)
214.15987854201413,28143.831191051555,26664.667379498835,0.06301539069281048,48652.45624206996,12761.955827931954,10329.413653941605,58778.945613831274,17535.16411760552,224.437586938621,10.102333851222651,18.41872197596523,4925.226179581062,1953.7223848388703,1175.1158833063312,1,High Risk (Failure)
104.33107995414395,8681.121476593571,11796.615455788737,0.8249338376407946,45154.835220499575,17696.930396390562,2202.072501560436,30815.592415418392,37309.9951684197,206.23358688525292,8.653733037680055,23.021565622526875,9799.633554810353,637.3704740974254,1008.1821520496699,0,Low Risk (No Failure)
156.10417064773694,26375.252292575136,16722.510431272796,0.4086759787921972,40744.257302767815,6550.521761220972,1801.0588278744194,30879.478918671066,17981.849431179155,282.92268983628844,10.098033927818559,18.818007777713483,5526.0711711435215,848.603638239945,553.1314764465573,1,High Risk (Failure)
138.96745285441898,9795.149755897914,15536.58892002709,0.7771529082294736,20523.342590654225,8306.339803901312,13012.40049646049,28872.8277876084,50216.49735956214,243.6124258657921,9.318116173602775,22.659802239610286,7421.922645182937,1657.2079620893574,1457.376560403126,1,High Risk (Failure)
185.9045418008472,13465.106467877074,34603.8978253969,0.5492200998868637,15545.187154932106,8964.130736108782,14253.101167448462,50642.663695444484,34507.603437733254,246.12612162137353,8.271035932761418,18.87883849101134,3041.909020886036,513.7070174729768,1460.045069716461,1,High Risk (Failure)
161.16228606712485,19270.541737945994,19257.395797616016,0.891868204381326,41291.83172727571,13054.860599407182,6723.628631216705,44761.49388593959,45741.35183575069,230.82407306760354,8.154174097185038,18.269832306807402,9481.903291420836,1089.2116206072212,1450.682737337329,1,High Risk (Failure)
191.2108003289039,10553.083063858845,8573.001728280668,0.1295537377604956,40795.91991816026,6164.212156843789,11173.584194393674,28848.011015524295,55701.20277824479,217.42764190153508,10.119494795005766,20.231140135692012,4244.363765439866,1712.568433514696,1286.8919822959856,0,Low Risk (No Failure)
166.69828120737668,15940.574558008197,18932.08718961938,0.25991647385772365,31166.86986265189,5711.030314477801,1509.7641987566471,62464.04316137692,66994.17495766265,259.1875934912015,10.643865651444909,18.221772587510227,5241.322727710769,931.5085256789796,1095.4551877860335,1,High Risk (Failure)
171.36329888860675,6683.425356351096,13768.705181277595,0.04644881728576156,22282.289757073075,20125.14299458856,8912.192016089313,20226.28096856782,20872.400903616133,145.21563504580598,9.790443128777206,24.91764227955202,5191.518726040824,1600.797044536878,1383.370697368143,1,High Risk (Failure)
119.47585062437491,26203.87299301713,13121.682745879501,0.715282131327177,19424.565019138372,8225.722420976708,10386.626197244643,41880.84643513566,40633.01819368103,195.91900055982003,10.216638374929829,20.948020042083343,7410.654659752528,636.3135612379049,631.4953270583185,1,High Risk (Failure)
165.87498922303305,23664.170756458945,7343.290662534686,0.05683906107981962,39856.64197241071,18981.45032598358,4638.796869197713,13403.655017731133,53395.77957326625,238.0585575677413,8.968945332449884,21.604085404016466,9615.955399812528,834.0721841453578,1346.1133869121645,0,Low Risk (No Failure)
204.04225779233127,26956.93496515021,15687.447592627514,0.9797206434538108,41861.631107834444,28630.808121739585,8949.840576964687,37729.50695436151,11371.346170227493,219.8521972146889,11.9821477346777,19.197701709426937,4951.242574093127,1493.8076711273793,621.4153191154395,0,Low Risk (No Failure)
90.08395753846658,1106.033028994829,31871.57524244004,0.3620558501724914,16866.593830250356,24456.019090661135,2929.150548832394,57134.16818043611,45903.46383635015,224.10609729921427,9.535194708191245,20.001716289208897,4072.1362407542188,1950.9647378654643,693.3522714412512,1,High Risk (Failure)
79.53758624160429,27547.069842534398,16271.174161408117,0.6113307533028527,59869.140792461185,24838.17379186209,12452.35152371487,64798.615130256985,10619.04095821128,195.54029895693694,11.34047490193415,18.499038795926268,3556.744484419017,719.7106510574706,969.6155623576074,1,High Risk (Failure)
154.98572659336617,21492.633130719085,6927.057441722626,0.6339734084404421,27690.11562417908,11391.05574749009,11439.081569172356,61621.80555578715,37341.829062283665,283.5297652471687,11.103631791410027,21.555110781110496,7684.725577616732,912.097565093474,794.1868683771288,1,High Risk (Failure)
150.5171142393266,26402.057643399945,28144.546244507772,0.9645801858016528,40867.35120850608,26818.26210150874,3495.965195023833,11968.858997418185,43829.44877646154,268.6959896724338,10.51510138408554,18.674258539430653,8880.827753421629,1504.0436303534057,644.9177056937692,1,High Risk (Failure)
147.31135501008413,18054.501129786233,20096.14010224892,0.5220838091622765,18960.236263756567,6545.476075285479,3519.80839607915,15243.099970277457,27033.588461869494,105.11540420756108,9.324599136116117,21.86814378989501,5265.804537841474,827.1810838005038,658.0062778339984,0,Low Risk (No Failure)
166.20872441948882,2733.1059511731482,30187.00119426266,0.8793264990158236,28107.442131740045,18533.251938642898,12707.757576085727,19013.435565598716,52517.09021252121,124.14822493906229,9.094819647143156,24.6222187088575,5436.095692445563,624.7998532278976,1252.0933221797595,1,High Risk (Failure)
193.1781663457592,22891.303338348258,8396.619498003478,0.8653756121021096,18276.696131029,16690.087862961125,14421.922269507373,40693.65442829115,55674.60757766745,265.8960951226969,11.90819502523805,23.432421743301838,6772.4377466407905,1948.061654577715,1321.6627398030087,0,Low Risk (No Failure)
104.78942351135086,29964.995138653983,5858.935815069584,0.8925114190941515,55440.27400036371,16847.868760050536,1099.5084592300352,69154.83314961837,59458.796988576665,192.2066727688021,8.445707254650154,19.285422840326888,3714.6553404870306,1156.6122976244037,998.9507839769967,1,High Risk (Failure)
74.05863986317334,26163.97143134768,33418.52969269303,0.9927870182635864,48466.77728925113,13305.971647415403,3900.4103601824627,44531.69790972423,35566.75106171686,295.3955342761078,9.465723295724066,23.8720485406755,7559.776122574215,1871.4483471431581,1194.6430769738022,1,High Risk (Failure)
117.60807454415654,20985.157352429793,17331.223417238343,0.8546738702503017,15900.232399177583,11438.386256014586,10650.26818337702,40335.70092754226,50640.8757585556,199.76850784920597,10.557450692529635,22.387540389629404,9417.848098891696,1791.1470219336986,966.6145034284475,1,High Risk (Failure)
200.76038436709499,21030.33014547581,19048.657030186034,0.14685714864020227,28896.851111498036,24646.791601664747,11722.60109324317,43569.07826581446,48638.61826181436,277.62500808920373,9.851146766288192,24.37334986344971,9522.834653555736,1481.7734422655765,535.5999129845729,0,Low Risk (No Failure)
67.24864156352712,8471.327964142347,32822.68509448286,0.5642179770333655,20074.67513201189,10317.83237379491,8309.810110186998,38316.10082747969,56327.58130324214,218.4510607402873,8.170587659317817,23.046934318464565,5218.267100240268,655.2507700169448,712.8661738751987,1,High Risk (Failure)
81.89098094703382,23189.316645976654,25959.7094024372,0.7171868897252714,29114.740912905087,22476.64781928141,7129.456152478674,53603.71745265313,56057.02263385808,123.10758464125834,10.46673273867402,22.96241251214276,3467.1380515206956,1438.9183981644483,987.6236384925246,1,High Risk (Failure)
155.84713394406106,28510.968346186728,10829.790616213228,0.8691828639805104,30048.650310957557,18641.35519035872,10283.261633072098,38051.01872684351,15466.29276251578,168.82971580946852,8.031734968391891,20.494676763864927,9010.197339377824,552.190300554469,1218.8438923167687,0,Low Risk (No Failure)
114.6958467067613,28218.98227757665,19561.186855075826,0.09196456731751357,20372.2576736403,25887.74819698679,11049.208882430115,63869.169510463646,61389.70648741181,297.73013964573244,11.427094491987106,19.667747222810625,5294.8279086866805,1598.9211418108412,1141.5719177989067,0,Low Risk (No Failure)
86.13868134374724,23949.2289859177,33862.2613411167,0.7737317369377926,16098.90461897691,7428.993586429751,12917.320324305849,60534.46834454208,55763.76557643546,141.56034663065685,10.841666740588257,21.159025883166002,6269.968364316224,1784.4494250984105,596.1512299703973,0,Low Risk (No Failure)
88.95631243351836,10812.668111831259,12255.588411942384,0.7562949238603938,52805.677196051285,13146.169509768446,12920.264301371742,35462.248705699996,56699.856295787205,232.19773902896245,9.366523526489681,24.024220859146862,7869.307960552896,1473.2782835614344,674.8055967817547,1,High Risk (Failure)
212.88379135278956,25519.813514376252,30644.60158976564,0.6252083217429301,22690.67078294376,12086.055986343741,6618.123680803195,29791.15460754817,50219.66771712647,134.07758974038325,11.101451105338466,24.077392492342344,6542.799119191421,1554.5873254543746,636.8786346791335,1,High Risk (Failure)
94.51850866823266,23558.45346056944,25067.003168558535,0.9733070795003765,48384.69757454262,14373.226283983222,4212.698415498153,47837.2534867199,61344.06425079941,295.20473999265937,9.977600197229822,20.42866915288583,3152.6350437583546,1368.1804044326718,1366.8686059134172,1,High Risk (Failure)
202.44128848284834,22417.63214480132,15430.15224406734,0.9521238781308706,28846.15096438829,28158.00121894924,2296.91047812782,62065.83484691881,23000.87372749768,281.66766425850517,11.999036745964972,23.233812877325928,9651.747016506532,1450.9401852471638,1303.0264755663209,1,High Risk (Failure)
154.3868298967413,1714.6877344533573,26153.394399169847,0.23325432182254846,40872.96984987853,17561.996816095136,7056.043306514363,66282.20843954326,44998.72084407941,130.0711481199137,11.565460151599012,20.641242947204915,5241.237110405042,1295.9553355168036,742.581555088711,1,High Risk (Failure)
214.76339045924763,21749.672684012734,17949.55287781883,0.7382189055403422,25266.917771658562,12262.122119100972,11055.392833549491,60968.70672908229,38790.31893405841,276.4237666964985,11.499752277040102,19.669695827007544,9632.441888570564,1606.8858388341343,754.0020062890989,0,Low Risk (No Failure)
80.02972675240807,1524.3516739648776,32052.25028121926,0.23590086669828836,39208.183423984454,21381.53155751898,6891.664852164941,64734.60825845204,51453.93323365786,272.4697498898314,9.482597314641744,23.680285233723666,4005.4366248390925,700.116335725231,1170.648672667959,1,High Risk (Failure)
215.48513323535371,28044.434552472867,21602.886834911824,0.8193187623469647,29475.78210001655,26937.10103293834,7946.148149978712,54092.04801814799,59069.96672448844,221.24273797434296,11.713758461423076,24.342683295282367,3231.522262041944,1424.4404089035102,1410.6168777299413,1,High Risk (Failure)
153.51182556118818,19700.82525946208,16461.04491233813,0.7267560573982359,37722.64932555381,15668.144496834842,10604.94775420911,56494.2296352643,39172.516719301755,192.7976097653179,8.766506687817925,20.893780328369107,7885.939563869222,1773.0966456268056,1270.0335156737576,0,Low Risk (No Failure)
216.89091632971576,20377.23919677925,25802.775260488204,0.43337860993492194,38994.94510386592,27990.17154301592,6300.141623169319,19239.43277886013,59111.34890691212,222.97757659603894,8.022331638349726,23.69514883495316,5661.211332185036,610.5439566120131,1170.3334777278528,0,Low Risk (No Failure)
79.44022020814688,13072.262927786287,32090.032554544887,0.806395293334983,33919.30302632031,25947.501271524696,4912.372174481837,29095.10683371066,44156.55923094383,224.94180545246178,8.538095034254233,23.240422671422557,5598.851743063962,731.2226404217633,755.0209167103671,1,High Risk (Failure)
193.46313552010812,21337.50692056314,22405.291093896016,0.8954140580670197,48139.783895097105,8719.407821181241,8656.192425022462,15183.204506438618,54876.816375439266,199.62629102386836,9.877055945235945,19.990099746551078,4452.623174496491,1684.2028720481492,730.5791517536276,1,High Risk (Failure)
140.24260714995194,7596.966507112659,19407.1014041308,0.4860034482382267,27314.9814345822,29086.466550948688,14725.47686430306,14468.247932112143,46839.24442789747,286.22066186705194,8.953717082145292,21.11167947374847,4536.387519170183,654.6662739867725,517.3993335524987,1,High Risk (Failure)
139.00729541830253,13699.096727144457,16484.726238905114,0.4912676284900007,40962.53591897822,10202.129762031629,13858.103827339664,58550.86620679636,52322.9833000299,123.86344674230101,10.594387565412973,24.931562499765413,7764.89379097368,1236.0672826047403,586.7570591046211,1,High Risk (Failure)
98.5108338932008,6615.0904840683625,6891.009574992847,0.6786270049882519,53448.91842216276,6160.53463616885,2662.981898541274,41055.168042577774,51007.6595208272,236.0613144809345,11.682251988690844,22.99071955203155,5203.455034648379,1485.5473336357827,1476.0933927893964,1,High Risk (Failure)
197.86638155185616,10347.815284347365,28568.804128639935,0.8951457368245678,51284.80386813114,19484.577094785178,2806.176621679473,59098.30265204575,45779.09404512585,185.33712080727793,8.02625549486447,18.551247055872466,9268.736094001957,1694.949423307291,1267.2985305134441,0,Low Risk (No Failure)
176.2673587312517,5276.163605357912,24050.736984248288,0.6946222874404765,54593.55459791945,9017.985252483208,9177.959036324013,34563.7858898392,51341.01810297301,123.04111699335061,8.67800398072499,22.628725842591173,6204.702203460411,1151.126657944209,1282.1710627701225,1,High Risk (Failure)
128.17939807235692,10651.732471658486,11006.628073659982,0.0006116351555870425,52998.50170241985,27652.622233874405,13285.03039597169,69916.00383697961,44408.60242900981,161.78707991010435,10.46949659345427,18.70251827119919,5254.117458490232,975.3875249622821,728.1964670753201,0,Low Risk (No Failure)
209.04878628951695,4664.734116463149,33130.46306478411,0.7457821580012718,25662.114574011706,25941.84546522021,1792.80900791341,35138.5750791896,47100.784807267846,270.4880191410567,10.485674868887983,24.87669839713243,4228.640784018415,1162.6598358508988,590.0375053443454,0,Low Risk (No Failure)
60.921385679699455,1291.3624505901162,22302.825423077727,0.43176753819855795,47297.754026457114,11113.988773282234,11145.334775340421,37599.0273759424,68111.66434882596,214.90586756084124,10.879365241323217,21.452095518709747,8181.3457266182,522.5633074918743,621.5086013761718,1,High Risk (Failure)
165.8942703759006,11766.85669465642,6124.63870608978,0.32393556607803375,17090.766474985932,6330.682121888274,3883.363828776103,63343.38501729244,62320.53120999926,166.32000615908618,8.662030844102665,18.82382994930647,3842.9874506444476,548.9337704015619,960.5740836098967,1,High Risk (Failure)
157.6360239164226,7958.518207985308,33800.379717581556,0.5483319985297957,33640.99131844516,26447.988711510163,9810.908274385634,62776.372123670866,51530.10362329067,266.9662862190311,11.272827441979631,19.608597744847252,9717.932646900954,731.9543005093122,759.7496510988165,1,High Risk (Failure)
140.93643087229265,18980.038670844842,14957.188546924903,0.015945686453310848,36079.587541819215,19690.682431036767,12544.324981713304,24979.062467967393,12713.517584661351,295.0819816113188,10.783498794361783,24.761974985049438,5300.668581444188,1186.5079378252165,553.7632412953246,1,High Risk (Failure)
71.80745035766381,10551.998809760196,13839.467091875014,0.7359472017232224,41368.61304149529,7232.9880295940575,14559.821681382778,25861.26535402416,62672.285660583024,209.3466873313432,9.800593221137385,19.125005141299532,9244.847942509377,1483.5039316943898,926.0480648574394,1,High Risk (Failure)
188.48190104421127,7423.530474761729,12356.898746950365,0.7321198004106302,33738.41757650128,18928.910490505907,10191.547566283174,57679.71550325821,10446.615313130418,167.46051537287929,8.976454564962316,24.874366445889034,9698.733103526192,1798.43504572981,895.3417298524496,0,Low Risk (No Failure)
206.91825386806994,9576.832203989554,20825.435596656345,0.46325660439450267,42383.35941946757,24345.019957219705,14208.478262566481,56641.79913032566,54384.30703832265,165.81449628595917,8.533081502180245,22.40910060894866,6875.2924099402535,1137.3256295613137,616.9768000054661,1,High Risk (Failure)
131.04699987235247,18625.12029355931,11789.925192112238,0.9466317459653377,27373.159967860644,17605.496652485068,11933.749916237015,30739.275937703474,67066.76305260214,183.07668013854902,10.586150295892296,18.878533672552447,8673.472846158844,1166.6456973518298,1175.9230683884202,1,High Risk (Failure)
124.45972522122193,15508.84953428093,16571.969836995,0.7295038264293836,39877.80039438237,14527.690923627924,14595.007023961567,62127.12779039343,25546.786348712518,288.8530339402712,9.01763704016199,23.941758328400752,8889.129545321306,1420.823898460252,1052.460978194697,1,High Risk (Failure)
184.6564138233259,9176.169645910995,22878.247871921132,0.8433611288719896,43755.78430170433,23251.9756623754,12843.941978047096,40868.6349325418,28126.36483890375,133.95268802151182,9.675103354766039,23.055062374329815,9005.825189872015,1767.0727215965062,1096.0649670368143,0,Low Risk (No Failure)
186.35176114279665,12852.287305857084,8439.198307571205,0.006488083780526455,55641.28832133813,20087.76353565034,1974.7155351537394,69400.48040541388,16200.91885148652,129.33761550609256,8.312299561900833,18.22538583161714,3134.636862529806,1226.6192764462812,1275.941513873493,1,High Risk (Failure)
139.10724875241303,12922.28909285061,14821.300403461977,0.7093907452511288,39656.149965449215,5082.028225257516,9615.081581279157,39864.610345806315,34179.58534070427,135.76625953237746,11.526566936526347,22.773129795232393,7833.2416825839255,548.9461668320722,1396.4153574547506,1,High Risk (Failure)
202.89443283126639,27983.0094158059,30918.71084345069,0.8526322327715399,28716.591057649595,25486.58960441829,5292.9604533101665,30620.637153698848,12888.93550154108,176.97155957883808,8.421400955689446,19.81746661267917,4348.509310986929,1504.0177059430043,1075.1820353077633,1,High Risk (Failure)
142.31381243838308,27360.445865531063,8217.074053085706,0.6423268919507984,59887.75619280756,28686.70425943402,13920.729698881516,13165.05270281932,54197.149472722005,102.33038275579078,10.316718989521569,24.848947520059873,6934.899269238844,624.860049182664,908.6935107493393,0,Low Risk (No Failure)
154.96974966060577,1020.7889024908137,33572.62084260369,0.025036336237443835,55742.69548180524,25571.222638061103,14325.033490582107,61643.16090155044,69651.26597940805,229.15041843482277,11.182247264681648,18.71314209244181,5503.829011345686,1225.5313496338392,1452.2421173730322,1,High Risk (Failure)
164.26236167636426,21091.234760267354,27753.37870999593,0.5291631009556624,54660.98581375873,11817.226001201594,13085.71816888763,13891.967602082881,69757.9182292532,111.6314009843979,11.273747963638279,23.40351248983773,9233.186909054622,1933.8904775727146,625.7635951263051,1,High Risk (Failure)
123.34995619135198,21169.16531615186,31652.951154322884,0.017631408934024706,36073.50895298162,8750.994107271921,6509.2108770844325,50000.778414025255,36236.34090659797,157.26080630451557,10.721851519385417,24.794821713519347,5855.155834021491,1296.9653635840602,776.9448097212401,0,Low Risk (No Failure)
134.78424179997916,14275.17376841989,16760.886044107738,0.8369393582910502,18263.19733519031,7667.159605664496,11745.06774246744,45803.13114288934,47294.23035227329,109.80589723491647,11.224115606664668,19.42962053864161,3305.0536230788166,831.208799710249,1133.0428265035916,1,High Risk (Failure)
200.07818406334343,28223.74676011515,16434.42960083152,0.2888277800310779,16511.693508577835,18721.163882818713,7056.22859674361,59974.991186860454,23328.695675038787,205.94760017803628,10.454037826148747,24.778718243029466,5133.488681158624,1336.5683099240405,1428.9478038077232,0,Low Risk (No Failure)
205.73220234981045,2206.2827314376154,17693.402929873588,0.3164745316378583,16549.6186340935,27548.36062615513,6356.9412446671195,66479.9193043104,68274.10039682453,284.83440976306565,8.959678611015818,23.90548900633466,4723.642140277159,908.9897199196107,826.1916275892723,0,Low Risk (No Failure)
119.926419015578,12415.430088045821,16209.224554000955,0.49967024372905344,47849.92399454867,7309.270981897415,9934.023957210435,46563.55785922322,27934.72247226499,165.986481175275,11.388946310785679,18.618924492305585,8190.8864218231665,1200.6204869929375,542.6611023355669,1,High Risk (Failure)
91.87514973393223,11237.13777818325,20662.85710744367,0.8055842491436275,33373.20272051472,10948.417043034944,4729.317838828098,15464.846366240903,25525.617257732505,136.36902606580375,11.063060137005973,23.26909228658105,4414.761623183836,820.734137285654,679.4970720533106,0,Low Risk (No Failure)
127.80321918894774,24873.564418148486,8811.597507140119,0.26915364097108974,40058.64400817678,14811.292221556669,11196.346188669562,18591.924275521837,52184.012636068874,126.53063392603949,9.56581592397216,22.881922313012808,8666.853264309186,1094.1604757428404,1417.88083741715,0,Low Risk (No Failure)
135.9409401199702,26769.37913267742,22707.600957790833,0.8959344962919021,58767.875845033785,27199.63247616667,8678.41398851651,64371.41475555974,69863.50588635763,161.36698480817873,11.549636096995272,21.064733062365438,6685.904774710578,1615.0655360057842,542.6479155177974,1,High Risk (Failure)
97.1559505442149,10950.349976093274,34676.19577394279,0.4309933420681695,48568.50635487381,8609.387449573207,14406.83599732792,60766.72305922526,20706.22037444658,188.59800404337406,11.74101862992698,20.9557669675077,7718.197852475893,1639.0970584225572,1437.4821017747063,0,Low Risk (No Failure)
106.7431437656349,28640.483317429997,32279.124392181482,0.08372413310890992,29692.24474484632,21442.766728883562,7011.107485448478,16931.44073846467,56377.5095146709,130.9797823516597,10.200237260491527,23.741051924769806,4199.580837493981,1166.1028660843906,734.8369088838688,1,High Risk (Failure)
111.05607571892091,21879.90727619594,29933.816501532372,0.2534691412428939,26602.15631711729,14292.90744747461,11918.776099617668,18303.678138691786,69443.12460240837,118.5806751388425,8.159893742879751,18.83335535456543,8141.323822670689,1037.7231822908157,780.0604189583123,1,High Risk (Failure)
155.30877186584473,3856.344608702694,26145.085925520096,0.8394033438945055,51103.06385916124,8060.682463890887,7338.079446870752,31268.109321655724,34800.91842979289,141.6628601742693,8.064471316852938,21.510236314941565,3743.6831837749905,1833.2023507831302,1042.754588389501,0,Low Risk (No Failure)
137.7877846567813,27198.824920020998,25315.702819303562,0.020764089724460977,38919.15586292955,20782.59443320527,10622.096629999545,37435.89551405041,16244.962543223857,284.1085782908219,8.79372212185807,21.595491604645172,5004.639281468223,1666.7800940403913,644.7955596858726,0,Low Risk (No Failure)
171.13526836052566,16364.46265503157,26200.831410275438,0.7552365311999519,36386.47061736129,12471.553963166087,12260.623353708172,45198.243455082964,50480.32979227332,251.38483133248332,9.13825671311773,18.157083706560652,4780.868316373688,758.6265824806034,1141.0216359645033,1,High Risk (Failure)
154.0137393775043,4059.8957456348317,26055.872804726474,0.9117745470241428,31952.226927090152,21331.15538389815,2650.0608932955492,47931.56687443994,22966.035859750642,243.73578912161273,11.446659877304024,19.50737571139332,6668.993533333311,1561.763531230877,1226.4446521920854,0,Low Risk (No Failure)
123.8905465294893,27299.13074285524,23411.36545562684,0.82689323382559,15390.65441518389,21472.41763528364,12333.142581696287,63225.80497515373,20012.79057571973,172.49691309798152,10.76140368792751,20.229440997116868,5145.742601430179,1888.4099369382286,892.9549943963827,1,High Risk (Failure)
201.2790119727637,5113.48753089257,10089.832437701567,0.46777626498603475,50514.88161424175,20897.510485392966,14176.525878724668,35796.76353740637,49069.86379971683,197.2903067916781,8.762082816230624,24.90010609103418,4042.328642739506,1128.4049948817103,842.4744554328042,0,Low Risk (No Failure)
190.99843671744813,14942.798877212092,33977.08975597433,0.4272817081273277,28760.40662953246,24549.596339417738,3786.3541920623816,45723.754412391936,44740.37475714871,173.43431421615588,9.58266899961046,20.092397287577178,6565.59815724162,1244.4957209911684,711.9149509039777,0,Low Risk (No Failure)
63.29351908732839,5799.493465246013,31582.219012865753,0.06755484345568707,33651.452733340615,27622.317512447906,7096.665293065484,45408.85486077102,64437.78519524369,254.73335466834692,11.919662315111205,22.829306692003776,8467.143132551842,1666.3312884833847,1028.7749083964786,1,High Risk (Failure)
160.1974914273702,12736.470355545935,19057.394131254172,0.391228221283483,57209.48374749253,17817.865602957423,12859.697166306049,30600.24172089638,35682.54587766256,116.69172102847526,9.315846978988237,24.972776911226816,3463.261084650592,1872.717976346644,1473.5594399719394,1,High Risk (Failure)
167.5936796840046,27254.3330229066,34929.51015126421,0.5328856366408696,16418.49833882008,18600.083093888017,14056.559990131176,18738.313110406172,14131.745151555617,287.660712913153,9.079462951279876,23.059626265216714,3431.8324992961043,1442.6220000683854,995.9097799894738,0,Low Risk (No Failure)
129.69333037006928,4679.312013829705,29866.913359276332,0.5426592821365677,27282.969043821202,23340.31007079168,14492.269652796098,28095.662512961997,15203.363680437866,212.51972556756078,11.15309079120608,18.53666513473133,8160.946116634564,909.3203443916127,685.7268635366515,1,High Risk (Failure)
116.5474206884349,7964.396284638411,17422.058583213275,0.000252454490562104,48660.16420359911,9808.811818308906,4732.223737283046,25342.067807693216,13264.529668952511,289.20124485252336,8.369122590367601,19.27610186612386,7815.484420215848,1433.8525715829192,1229.422138643548,1,High Risk (Failure)
63.06487768820047,6453.698427893192,28830.569877430255,0.35698180587775774,47331.33966491664,9145.111770664502,11095.22652176909,25705.991063752794,39545.385134102995,151.30404002616294,9.23204098184846,23.385656115200177,9371.441987378392,1851.577562823476,872.1032453414631,0,Low Risk (No Failure)
208.34845111671243,19541.86921574049,14589.440827628743,0.3956174657932684,27187.62169630496,28548.772591534187,14292.083296868583,40666.71477906528,38331.71190043342,278.5798585300558,8.285047857032437,19.10505658209588,5777.256320715372,1632.6023815123026,705.9413944676271,1,High Risk (Failure)
205.52775568194215,14711.007013745908,28200.593404502888,0.715869543583235,47624.20166443185,27780.878242389896,14554.211302962976,56424.15307485108,37524.465833781505,143.55356722767175,9.933801444695758,21.511336844861784,5144.260546135322,1057.1571800066597,1248.8898155456968,0,Low Risk (No Failure)
104.60157958632848,18767.84599556361,22750.064617805117,0.554842190371608,18284.222162892787,28849.392852013567,13077.546777774025,46508.32702146973,27328.242173218117,122.5133664833188,11.010488413166478,21.670355542975233,6634.502176074131,761.6649256230271,653.2602351427907,1,High Risk (Failure)
164.82779432389407,24664.971566759985,20963.595806141195,0.69356245597047,49752.40258115757,12997.771914040635,12501.405780529667,16304.76673339623,62283.85126186606,203.69030674311847,11.232029073506371,22.39518301547716,9001.2718567874,1977.6186251743607,1226.825775557024,0,Low Risk (No Failure)
77.84195397140422,3133.337272257204,27364.01114621166,0.6265033072660964,45364.33686261384,14311.291087596694,14058.262996960326,43801.786779677714,40734.74681705353,137.68537831134887,11.169163894004303,23.899517504896146,8017.017660204733,1358.3912891986186,914.4927263251909,1,High Risk (Failure)
72.89624220113994,9793.037619030572,22678.1528371126,0.007541092715998676,56427.62540776567,26142.671591301158,10375.763422084257,25321.174802062003,23216.810067815495,128.6980177356328,11.358437933970162,20.96358601185703,3851.671590600321,1040.5456023984111,1417.3472029185887,1,High Risk (Failure)
217.79371911673647,19319.950131470938,6051.948470561561,0.8562440416916203,28036.320926944732,21744.39615093409,5662.521696766362,48350.35380625975,36242.186445074294,249.4409125921544,11.472580612311555,20.500204471904084,7545.474924903551,1389.0604412293426,1234.23602365008,1,High Risk (Failure)
150.8758875705729,14821.99323300567,29255.398197812323,0.97799979356129,43142.65798710816,16693.412175706755,6057.68418112672,45903.411385240106,37521.426464691394,245.5278971749887,11.929101060723855,24.213809547751385,4571.8628466827195,1829.3897258700556,1456.1967152444458,0,Low Risk (No Failure)
133.6573233923082,4801.31598943639,29170.54366630677,0.10319981190583605,20217.007979587786,24354.172126718182,12485.299194521558,31650.401166987795,48792.01314382907,228.2994163410311,9.44439672843567,18.919184719276334,3149.6577408573266,1592.6768989423067,1462.7157340908689,1,High Risk (Failure)
133.4783804155133,23576.96052178824,24404.169810472908,0.03291858676395376,45878.61752180709,18693.76147876548,3397.20871137841,53548.63185166728,24562.019192158106,232.82414355346745,10.577216289680726,23.459818348452515,9580.23452382881,1211.4000794506637,908.0152123571015,1,High Risk (Failure)
120.07502855464006,1821.7860611181545,15489.60141386713,0.14778413347831776,26395.048838102535,8625.304184907132,14913.36538249062,61479.96587082528,11836.885882380211,164.08812462777908,11.152593655777757,22.368233162530355,7148.650467047675,870.5126064000162,1226.8077059418845,0,Low Risk (No Failure)
125.50586435059847,13148.785118994641,31703.45408929428,0.10475825953849804,15751.999218197683,20667.24755563394,11876.595182314164,59358.26482132464,26333.78052855711,133.0883983217502,9.749287862327979,24.044946109448535,6390.7905056634245,1498.3704035781134,1265.2152837183755,1,High Risk (Failure)
145.77541861505927,2483.799686918801,5790.4199658175285,0.6884093364557076,36981.126701247085,15520.623821694855,11807.627749925703,14651.99549342241,35597.996707198705,214.09036940377473,11.871831230422286,19.482502361596534,7870.300566631711,1126.9717102654197,1319.3469667232646,1,High Risk (Failure)
137.98899171992218,29009.263395419923,22847.480627566147,0.9281321860154439,46349.991044864786,27738.888394383535,10950.067025771757,24080.621440713043,48571.7994941053,234.24420468600167,9.69426366471674,23.851251521278275,3311.7185796569943,1586.7915896805487,961.8931580385729,1,High Risk (Failure)
201.47303413574525,1246.3717796090757,25373.864940045856,0.963687165956651,26585.939963936657,6502.208818582116,10141.084619821446,28867.62423842622,31198.96724970489,150.28881044158615,9.828467788788316,23.48149892352128,4307.529133525612,1148.9496702442316,1002.2963847963367,1,High Risk (Failure)
142.65162055135664,15290.659030083716,19094.062270930386,0.8831759706143232,20731.921463753297,23108.18502035053,10867.251117277065,47829.554272144116,55770.596942577344,188.42868433971557,10.482992483939046,20.416685414839552,7827.297405805403,1196.5141595333153,1349.9690087069562,1,High Risk (Failure)
76.8552775170133,18090.617703484113,8282.91214507938,0.7846759807288776,21246.75070094944,8972.066760813033,7137.660677694115,61627.01790258264,54856.188690459545,157.1844309700963,8.590926723056315,19.223421735730625,9455.143468256882,720.2152654407853,913.6232545493267,0,Low Risk (No Failure)
157.83267766954367,27558.616097531572,8920.94761244939,0.811016110262656,29183.97059944571,21560.943668408403,2100.326767623934,56331.33732991566,32379.27327225956,222.42689158165226,8.002977259556324,20.949310796591767,6813.73731344985,1200.736054570813,995.3658803915673,1,High Risk (Failure)
168.73925323761725,21851.66179257443,15774.918159018594,0.8161255736539539,34587.250748877355,6588.803251136811,12043.48428893154,39486.95386615729,59965.81306893963,266.9533947528281,8.232368917909906,22.80010135212271,7222.136739262421,593.3218974605248,648.0289258169119,1,High Risk (Failure)
71.38490862046555,9719.01357626158,22583.610464164907,0.012727281689920544,53617.32047320609,22768.379467201452,3836.722746649752,58225.42336082559,34889.329960077215,206.5329174807248,11.511373538580777,20.333456444840944,6192.141325247223,1338.2608272578975,965.2707069769327,0,Low Risk (No Failure)
123.38763065748086,28564.60328608491,15302.917640584794,0.966276251897396,42809.942782364524,28938.542634728496,8276.000072408027,47627.338244119834,40956.701693577146,135.19174761156415,8.677445111181695,21.283841971942326,9813.056473409048,1702.5297951451473,1028.7354781178688,1,High Risk (Failure)
123.13217209562342,19992.30657128791,10645.23938158754,0.6084910865636168,34573.71191242653,21595.10717276965,7355.806770462195,17951.88374315374,32075.343116822733,291.4691697556083,9.963703291290845,21.97054064415603,3678.258921783615,1782.6760647301185,968.6623648676821,1,High Risk (Failure)
164.19727632663873,20896.643464361117,7435.633611512935,0.8378257199236009,44678.39796014797,5106.878116512274,4188.623392073301,16649.533977491184,26776.660665046948,169.3206463583321,10.157297345060446,24.329857976258317,4017.99780806414,919.0198060166699,1228.6395359115409,1,High Risk (Failure)
124.86765202226479,19807.490611966932,31338.24691998818,0.9804616351098306,19168.63659095127,5515.328970896617,5386.092873918045,28551.00394570218,26519.93803370279,179.72112018161388,9.218225663384615,20.356683511432383,6901.6291501344,1861.488863116809,528.4408974697892,0,Low Risk (No Failure)
160.77130470955325,10018.217620107966,11138.764176770595,0.9404877369692498,42001.23312056085,27199.348574084397,5617.252407264295,28601.526002277078,26642.154697201986,126.97001735563312,10.408155665553167,18.59927422245877,7707.919939061268,715.2951781404141,1275.022240350654,0,Low Risk (No Failure)
205.4723417930379,18284.87466754423,18401.64667969621,0.7754957516360781,41947.90690076109,9609.172104288558,12606.306483315868,64611.84284779314,16701.97992774196,137.99303893805572,10.651964788555793,20.82918916974999,4977.188953584293,1147.8296143704988,838.0216772720682,0,Low Risk (No Failure)
61.33119075635072,13781.893359798218,14891.93321438637,0.2753756814749446,35450.85780786613,19395.335796204512,5452.974860302386,57231.15974393706,63025.4839532136,166.5348855496664,8.153785943152732,18.283050389204888,8657.899829159553,1875.8874246918276,672.3242419272235,0,Low Risk (No Failure)
103.28948103807862,15741.039134024142,20741.226235467977,0.8448160525721434,30371.237353031338,8086.000242327438,1224.4528219644226,12992.352449162478,32921.15283477932,150.29969229226452,10.181163577230256,22.874788053895657,9690.346639784158,1040.2066597176058,562.6849459651293,0,Low Risk (No Failure)
207.90339126024486,25828.45503784515,32206.18495457158,0.1104431269411511,38589.34735264645,5673.868994953281,9839.237119567524,28169.329070470798,53362.282756417466,212.72123722720585,11.709697226502321,20.463668905215474,4822.647783475024,1148.278827068516,1429.9312391371575,1,High Risk (Failure)
176.6178307631915,28378.74879198057,27936.91154171306,0.2177626185490178,42943.489249522136,24352.67800940102,9576.850909050178,46797.002243031704,48984.921926265895,236.82997935829104,11.638687251768275,24.93044917926258,5139.133084953961,1975.018731717491,899.237251807321,1,High Risk (Failure)
63.84080717518222,8667.724639959717,23626.225626704036,0.9041079054576358,40381.07071209819,25372.40725632434,5517.8261903451,10260.515665656772,46541.411380586964,222.76172115865205,8.781397928368735,24.011239442799155,9689.127626814296,1753.9814024420014,994.1015546897811,0,Low Risk (No Failure)
68.18403289926363,2451.871285705536,27815.060132517196,0.3309118856783746,17017.819657796077,20719.327981284972,4621.151307065441,37501.961862246135,57393.16311615469,113.51332925571961,11.165641889388949,21.478306792588732,7763.99861489905,1828.8040957377816,801.2159975557865,0,Low Risk (No Failure)
63.06063462996592,27036.078385368754,31916.123927953744,0.8526224374761169,24916.63607549212,12563.095524742195,1140.8876333224266,52401.00446552034,30278.37798527625,158.80281732402034,9.787733010826804,22.145656976704146,5210.100175291042,1187.5657196116147,1065.7859322136683,0,Low Risk (No Failure)
215.02045684571064,25423.618195320323,14812.745180049158,0.05620955786622217,49089.721071475025,20236.243959506843,12914.176067044493,62902.39246011129,14842.049281425727,226.4497868872893,9.088199911821366,22.571255551288118,6202.309114924836,814.3990478253874,669.0583161099664,1,High Risk (Failure)
128.39835006729842,28408.551013601722,18905.34441075653,0.808212830516503,32903.61082067652,21537.32551035794,3433.68264969266,67842.12734389683,25932.26060636603,278.17855263393534,10.068584037434276,19.68402762293216,6777.85893093031,726.1565750461814,776.5030423048768,1,High Risk (Failure)
125.79064287913376,14006.071612076381,8646.698885548072,0.4895913570556003,21612.20981757057,25848.95311662392,13309.886737146788,36372.49894458168,13391.379835486883,295.47964298069405,8.546691489831126,24.054205904965716,6963.961446663536,1236.4801072582568,1349.5477804883542,0,Low Risk (No Failure)
103.17131522051429,10200.516056349159,28766.67041731786,0.24717696901060615,37033.07241345785,23390.202662552914,12852.307002202808,43990.42385126654,59221.06727012959,157.8735437074966,11.499211622088144,24.07831752824075,4035.81531356337,1276.5358810481243,986.7994247407999,1,High Risk (Failure)
147.11717324804206,7050.905481594499,22659.31009148185,0.4511912805538396,22626.972371402553,18663.903629407196,5830.894126566239,28842.237217169935,49378.6888005161,220.1381197616896,10.361426348500915,21.628584421104552,7324.4220623150495,1076.1908043202743,1020.6036784946164,1,High Risk (Failure)
206.41441094512692,1265.800955330678,17205.923226178995,0.8314532342453552,16522.996687485127,6507.440033938742,9077.998959370703,28956.300833391713,52991.464593015386,270.3100375811275,8.636948010632292,23.21448293873012,7917.746299873249,1681.7210031464554,745.3453731815291,1,High Risk (Failure)
118.92952488109573,7245.419202783646,32588.1025826431,0.19965968664897826,17464.172374963804,21155.8303687846,1428.585918559104,22838.901023630147,54000.666994966574,198.01768422736626,9.933216232824961,21.77080033799242,3895.0165632632043,984.2578429669327,1236.6820029963392,1,High Risk (Failure)
147.70323243648352,10405.096252391837,13712.327664267395,0.5970620209428874,17094.30178042383,26599.231416231058,12056.717506870906,42747.951040740365,67059.08920669954,265.6935039765804,8.53203877665323,21.883382301047945,8972.179410344372,529.6898816246126,816.4161231111236,0,Low Risk (No Failure)
71.53349375978775,10072.494212164376,19303.8567170115,0.16774440613960273,56713.81068562956,7733.670582454728,7512.037302745968,41127.89127069821,60878.22678146218,110.27277649137821,8.54649862057904,21.056465269883365,8392.556942456828,1640.9714908364863,1013.2371789178942,1,High Risk (Failure)
148.10567347785027,26241.613430069272,27824.050152683056,0.3395700728052524,30063.456013079638,8864.772498593085,6591.725996445714,10884.497542442396,21834.06320133201,217.4745903580436,9.532472487596506,22.43382726519792,9904.640326831868,833.9065805347049,572.147708064849,0,Low Risk (No Failure)
70.63413212420355,21190.4216475169,15170.856492317293,0.6924454812415469,33456.73739498879,29347.64183592509,8633.638696311067,56418.71094735389,15685.802574676884,124.58228837560873,10.938074625427184,22.773160421487987,9423.057267834245,1584.4381481495482,1012.042643020653,0,Low Risk (No Failure)
128.18900835775565,15398.94724468754,9246.465529634701,0.9677543233731215,33372.758095043864,24685.643483454583,7944.0200210033145,33058.42077959699,68674.2024688646,296.6399285543489,8.592147214006344,18.060447745129416,6004.220090381506,814.8633323119518,756.2499219098139,1,High Risk (Failure)
160.72923150267786,20372.564122864238,13321.274399999042,0.32725737369966423,41092.54051516634,10620.312042471152,12432.471316862453,15131.265567579268,66158.34250910411,141.80351896744395,9.280441704624394,18.36231197121709,4936.54575285917,1431.8461196236308,524.3854662365242,1,High Risk (Failure)
113.47813099136972,26147.412379032536,8868.119162594516,0.03571094902814309,51740.71140447756,11242.910340875067,14978.24717201991,67979.57579243611,44689.17646847793,175.1768281082386,8.72391689056726,19.163617175105305,5090.950889417798,1065.6611090340132,912.7717413120384,1,High Risk (Failure)
209.6775221643993,7381.921388756062,11649.915292621648,0.9817796032779894,26583.219981571456,12269.504623326342,9058.832461284042,17150.843153941798,47766.62001889923,238.9706269740631,10.188184073701416,22.79757590964571,8770.431701404463,1499.9504076504459,1215.1388415772194,0,Low Risk (No Failure)
183.55916308746518,17031.631395832126,33090.282601946834,0.9330940731098543,33899.36093051776,10952.64068680197,2649.519936679082,48120.978384157475,62871.20958615113,221.1205449601431,11.476274069122905,24.769807616297534,5247.241086923781,743.0502611262641,978.1150023345004,1,High Risk (Failure)
128.33680725765493,4940.698353700232,23085.342403590523,0.6957583379921807,28682.859187792623,10413.679113833281,13076.46827164806,37919.40370425112,30648.07746045049,213.06189037412267,10.751455766311611,23.340776804720313,5372.675043006933,675.4974915332455,754.0403497730233,0,Low Risk (No Failure)
130.64488021974032,29516.882284012572,14708.284083022123,0.6114342367394741,38172.240581428945,5998.156277778764,14481.964824424687,32910.13389374575,17143.379473191242,121.3739855415578,10.253901660592396,23.15869409172247,7624.228526914972,1599.9496083846832,506.22583045988654,1,High Risk (Failure)
142.88129062473996,27189.82770442998,13879.778754319008,0.17181617830127693,44705.26932563193,7595.677150277983,5762.927699224345,30500.14840266501,48713.80352257554,252.54749353940952,8.756170607703991,24.27323642900169,8857.851715049459,1324.248325449276,550.8634258813267,0,Low Risk (No Failure)
62.18918636170898,9379.173483069897,21881.060161132027,0.6613482063119197,38209.75294531757,28731.270490869945,14152.198708587828,67012.47238595488,22782.298852669162,194.24061114479252,11.396263873332906,23.721733249484664,3706.3865622403982,1209.6058079633585,1028.9883374300384,0,Low Risk (No Failure)
146.66147434573872,20529.172138431546,17608.707801627657,0.8614748123426943,16723.824989615296,15589.434639543013,7437.109477163928,47859.09191244792,26922.46757575183,103.41506460486198,10.801047402996625,20.418661984604544,7237.550064227058,649.155707164861,1271.3248890094715,1,High Risk (Failure)
153.30083505593336,27084.139452061223,20654.47104149767,0.29585116521204413,37000.19142886841,15280.395237061975,12130.515191080536,53277.9487543332,28044.822946984237,263.9643255772209,8.316081270342176,22.13691724508046,8796.111203582785,1796.0525780084395,789.5135998316692,0,Low Risk (No Failure)
129.12302841512096,8870.060457307953,21120.044745292333,0.465239315179936,50447.43542832472,20824.661755715137,5221.912651734177,63526.87859010821,15061.656095056467,144.5053867887184,11.750035274166523,21.84079073662926,4036.14504009588,672.2157316967028,1495.1126764685373,0,Low Risk (No Failure)
174.56799571874313,9395.43808847187,9540.237760745991,0.6996947009573651,59711.88145702695,10492.5445066153,11311.746338123869,19724.12087782179,54692.00112558594,183.20554459268558,11.036132558948818,21.366703003907848,5738.084460040798,1872.6717316819484,709.2582087966139,0,Low Risk (No Failure)
180.09836026253734,17564.776334924496,31049.718909511037,0.4665928734356195,56400.70996482031,22430.828511006766,3928.9047538642653,47158.02182484702,46769.091286665025,186.96016981185005,8.381130050337848,23.051034605570308,6257.098736185524,922.8521011043179,1280.8586732681053,1,High Risk (Failure)
65.50216337843494,6568.677704953991,11746.904171912218,0.1585980058380423,46922.00686394501,18172.98418261081,8170.350378346424,36417.02281839894,50083.61744193774,153.97034806913692,8.11022565946326,20.827321796486196,6280.293171012148,1101.546802798958,503.8379935229761,1,High Risk (Failure)
129.17539622453558,5949.645623764776,9821.467546745169,0.2180164985319386,39615.837664951585,13898.492750432562,3536.7447538348342,59615.4991561042,49714.826804031014,286.2661032831742,11.133155559935524,23.477810471232907,5302.6288803324205,1917.4064738015888,1060.0326801570004,0,Low Risk (No Failure)
196.193106247803,12904.462697224,14297.897276874992,0.4315542899531073,58748.24738573668,21154.754238330926,6556.056410835501,66133.76642253,49207.55926983016,121.83669254551162,11.316934672479526,24.391949226018,6943.171636287916,1167.708708363457,1128.4745129296568,1,High Risk (Failure)
180.33829323151596,7566.458547541849,14218.809297268794,0.0033839865739774266,26926.958792010417,19911.33452905029,6285.961592068531,63503.252544397816,15437.3789736031,245.03175318846507,11.59871309202471,23.22429904844917,7139.800777284577,1761.8951840406226,571.0379957766398,0,Low Risk (No Failure)
75.68122956491857,14402.07372482712,15980.461627756276,0.4157543876756019,59203.42963441887,18455.222174495324,5126.788102026653,53598.76163871615,54428.41031184612,287.6556497463946,10.378755066939938,24.25214198779032,8764.767456213245,1783.0177219349036,718.1641630958276,0,Low Risk (No Failure)
168.2914078171833,3454.81385395424,10756.626491542858,0.6431614511633417,23017.587721027725,10316.910737371909,9969.390755299282,16781.518123213733,16518.8795837356,284.84786008674575,10.67238472833945,22.41561407340976,4848.2616891314165,906.3438849034546,824.2140496471513,1,High Risk (Failure)
186.23762558732693,12680.780487348355,26440.623483048625,0.4799564934633127,26117.999044089396,14694.470487680785,8231.261615542344,35580.255999409594,20058.728821785655,120.01617898069401,9.163367120712225,21.97606674310653,3016.5997786807357,1891.4955639744542,665.5400782247473,1,High Risk (Failure)
215.105971573646,1807.3904866150024,23152.144555423005,0.5264985273282413,18763.939076247018,18514.967651391547,11990.952802484635,59548.11052931579,36824.219075920904,128.99786970308944,8.418607947258058,20.018518362538366,9642.194630253158,942.135047417443,1106.2690079619933,1,High Risk (Failure)
184.775263224183,17286.24072365363,23006.558331859083,0.5753700648257168,17217.543751309036,22723.773108353926,7826.508640772193,24799.37441714079,34125.535914482956,161.2118291307803,11.594432680197563,23.515184376856688,8185.682355853526,1344.401293737441,1251.0880139748174,1,High Risk (Failure)
117.24772245207069,7352.716018736616,5447.307924644237,0.23416868619664244,42067.18288387236,21304.228177293924,1289.641559789251,68013.68238339943,67327.74328212853,176.6750012098713,11.465133610536846,24.395831214757244,8407.667103304237,1036.278933195462,602.0109602823615,1,High Risk (Failure)
117.89649491282219,2553.72022861483,34696.0245211368,0.3603984051195146,33712.53226206133,14888.359901574084,5640.744365612061,67105.03094935603,57988.77423008477,155.92827580583034,9.278966526073697,24.706823394167834,4963.639548323283,1415.2423216450884,871.2260462369609,1,High Risk (Failure)
165.40533867371477,28907.803666955,33459.68473119695,0.22206517454139196,39819.04123408623,24536.184465641814,2057.7177325534694,42186.71232109211,64318.09991095426,129.6828719365171,11.374089484575858,24.333442493635225,5653.698295292086,1609.3475489741816,964.1955401945988,1,High Risk (Failure)
76.03929019566026,9800.14327703858,12161.86435733435,0.43593449089112823,16645.460005909878,17003.075440475317,7290.897185550422,60685.764074004095,13406.174954130607,293.268170450874,11.787241830379749,24.096153963168213,5980.240630646913,1615.726497909896,1163.2810482513187,0,Low Risk (No Failure)
179.2703158694928,11221.950361357183,22074.247113628047,0.24003841876414977,24372.051957040607,27062.328185478662,5110.63492920183,53087.91268923962,17034.965413507114,253.21707280997484,8.832859055749628,22.016869139735014,5461.987343507154,598.226056861214,1064.8066805537417,1,High Risk (Failure)
74.60586828578137,16256.72638429472,9619.223892314873,0.3100018527823053,33766.585103092686,21342.65262004277,9072.8591703727,27418.562910520035,31096.04708009962,129.72287253736042,10.47254004691311,18.35142371750783,3736.41819076513,1944.0758343579441,741.7553831137977,1,High Risk (Failure)
166.81494169017355,27815.099677885155,10479.89146571041,0.1792098495610257,37804.10181106961,10697.51268854249,5681.7656287364525,52816.73755519493,28667.438487508993,199.0061006514826,8.910864228699216,18.220969085907388,8115.525889018705,1527.1604768045474,1127.1155211808764,1,High Risk (Failure)
206.82356446470936,10630.142833890794,22638.011991027935,0.954753678945957,36930.946689538614,22586.44607774175,8685.576624765476,57622.46996127958,20387.709683113004,200.9709497764094,9.973556249964552,24.313218997059174,8194.673611167014,1340.5673805423125,700.80754001236,0,Low Risk (No Failure)
86.28589492358549,27846.79909860386,13698.112809871336,0.7490080542484782,55038.10211267573,27536.74153267738,4712.497142048669,44649.46725638067,13469.334953159267,205.408350530369,8.958518502522777,20.271739538531666,3784.0576544895907,1622.8674513155536,1103.7765497758473,0,Low Risk (No Failure)
126.65053255716674,24290.859579151132,30433.70811088623,0.02098299628630318,58616.06703949906,27374.159466096615,3983.41221021818,25009.324715221963,46487.100962024306,111.4552461695589,10.67508541122844,22.60918208906069,9816.841509877766,502.6908051084319,1129.8015936230627,1,High Risk (Failure)
158.43511011696174,24410.587830461263,8116.213708364315,0.5330788223246319,17045.665151567304,29267.851360533365,3472.883269218762,58620.91269026162,17718.110313939964,293.36391079115725,8.881545756063602,19.68001066285888,3145.870000825495,1793.133537220381,723.8027652774965,1,High Risk (Failure)
212.08496841379255,13475.101344885083,14891.365262426109,0.24773616403511578,56921.26453396183,12653.83905330252,4003.8738758064273,30866.56630281893,49962.48114891642,245.676886870694,10.051636684176717,22.823272164439132,8180.80319146514,1502.1624950121975,1024.455297385955,1,High Risk (Failure)
146.75795287869573,13605.666301177636,33103.21848569006,0.6213020891720988,18665.43966304802,19923.780429018392,13757.439484413659,17911.107790205475,66061.99383951403,261.0101606965345,9.250801004830336,23.97518456422648,5079.519560956824,1675.7804674825488,847.7285390576435,1,High Risk (Failure)
216.36478921063156,4116.14327681471,13664.88289758826,0.7060409839581683,18487.3209747784,18655.31248691949,2291.074921397966,47551.72780651,25527.526039919474,103.19270085406693,10.271175447510409,21.297263325519562,9546.386129639533,1686.8179004543429,623.0971943705387,0,Low Risk (No Failure)
157.68748080246792,5572.169777110331,30660.083909069443,0.7861304224621818,45549.75151001861,29642.0725643042,14881.842290957491,31603.15334834293,63813.19843725757,172.65310115639926,10.853906050890577,24.31519303430673,4373.388034274387,812.6520034384179,1287.0875556362002,0,Low Risk (No Failure)
68.23660019999829,19081.65402617278,30738.55836207009,0.9383650151902594,37217.36420079474,8842.341406747373,8328.977380039592,30426.433968595607,67862.20158110672,216.437644883389,9.562821653710293,19.87216632075333,7366.9708222700865,1832.1587745198192,874.0152289134423,1,High Risk (Failure)
207.6411504821431,11807.056766930269,6763.880496339112,0.2970909687803208,25516.05160371207,29811.626969443976,4192.970488861432,44828.775666498004,63281.19065478851,287.8066808332968,10.141059483419141,21.029386580811686,8239.090457208107,861.5433187816238,806.0659105184807,1,High Risk (Failure)
197.71689332101494,8242.581197651301,30403.490815064877,0.46830094759995833,18179.64567034738,15230.95992618655,5331.213074483855,44783.71907191688,38340.823195712714,153.2408740867766,11.36483848511813,18.819185972595022,3131.291366062418,1295.104354470438,1245.2162776156524,1,High Risk (Failure)
202.72744882833814,5400.54447563852,10812.167990744318,0.8299180309869587,39098.326400732265,24203.428240371777,13169.618591575148,47286.01807153832,48846.80881130906,248.0962170152912,8.602754559614317,19.94393330690643,6205.958922594169,1789.8500913696464,1341.2902813418962,1,High Risk (Failure)
154.9538212327558,23521.598354095328,26144.724961721487,0.3049955183026858,20144.84975982759,26172.19769127438,6825.1071429416,15529.205032050175,33815.43154553622,220.31411211907312,8.295663915749131,24.009280085853156,4150.748027497255,793.408406274672,1466.3080911232605,0,Low Risk (No Failure)
67.93694533591724,16425.41020955777,20345.250942969164,0.06314920190686346,16026.932850668129,23564.53058429078,5959.356138051495,25507.75038549639,65769.65004520485,137.24881577568755,11.38655874833858,22.975145897655977,3527.1044672081734,1067.8036078264768,1014.2965220983344,0,Low Risk (No Failure)
99.5137867187028,29605.082977237875,25159.636142069783,0.6083685906962358,30963.9827008391,28745.89704428144,13665.662220811506,26208.795813886223,59068.74783293573,125.18297011255552,11.432243107073527,19.22019313763187,5472.943380955739,1616.4600228656193,1007.2333094475989,0,Low Risk (No Failure)
117.11718871498621,22512.38778213899,31671.263530704837,0.7728449442346685,45038.75861684175,5546.588814784468,2637.053351649486,61029.55468892654,28737.128111604474,145.22171723928673,11.787542007744461,21.908032297810337,6320.058810306549,1885.9206420575226,1021.1500356541103,0,Low Risk (No Failure)
210.090262330901,17255.641220086356,25503.58230263151,0.8425270512876103,19783.268722483866,6805.539318887681,8819.431117134383,34712.118760030295,62948.69365585022,160.42315634325612,9.01608266953519,23.026418167288313,8274.086613735366,1223.5738045555818,1023.6920889942278,0,Low Risk (No Failure)
93.99156435127567,15637.444786030199,14565.554268097472,0.8998480060071015,23302.068533414265,7175.164676401509,6072.049886988367,32741.678438602445,64055.58489067531,116.10508626828731,8.337021085129741,24.60456533074788,8166.699156108365,1649.7120902828387,788.3943575955846,0,Low Risk (No Failure)
96.5882847365774,12053.259579007332,21530.94058040471,0.23490626113123858,46038.9588439987,20402.655167571997,2914.909570631324,37717.951327025155,48600.70991839217,291.183281118813,11.0925778052507,20.36148291747797,9268.19344156537,1784.8428390269228,1246.959770819264,1,High Risk (Failure)
157.36436363143466,13926.164806183206,31305.43322462336,0.4835070745776653,57416.55964246102,7660.842967492538,12239.218815550837,56115.768851880755,52312.20112011367,197.88253283839595,8.317549990304006,23.25504938228959,4745.165609269625,901.0390896722998,657.5794029521307,1,High Risk (Failure)
145.18730916403473,15623.640362997914,11320.411919826885,0.2914806725790985,31851.50542145644,28161.485933406842,10946.906430616946,36378.87502738995,65215.79554171984,116.74143633627286,11.749716928755715,23.049405485063012,3196.014764238134,654.4667244215705,605.7862343607192,1,High Risk (Failure)
81.9437581044389,3640.0531334178104,21147.58239034297,0.8520698378285569,28589.110212927135,18765.342693615217,3776.954313730562,13680.784593707172,35273.77052019653,265.94105370811167,8.333424221761195,19.85164891734504,9257.9760801914,684.5864475548569,830.0878719127626,0,Low Risk (No Failure)
119.23714970953228,2273.23379528848,13152.15549453445,0.7003055923144761,54550.61041406416,6859.164378742187,10556.697498555308,18072.61993810066,17238.653117638187,124.72324836268554,11.723482465589418,19.707192106526755,6818.121406464873,577.6652504444444,1484.4164898994295,0,Low Risk (No Failure)
209.20878054708993,15588.981356328817,33889.27827093457,0.04016781395058122,28933.030181677033,12290.547234186117,1518.5335119212377,39006.10345841326,64928.95640084035,162.72436590806493,11.92057134950091,23.910004946041063,3276.6227098379677,1466.5232415612727,846.3149143816622,0,Low Risk (No Failure)
83.56409016833454,1652.6254954319074,30840.881568697005,0.9024535392055206,36421.988229942064,18561.253977531276,9659.659670898223,30129.899091629693,57047.10952400917,268.5539674117837,9.270571915396388,22.217662245474042,5475.834545624286,586.2851096646759,1332.1830142125584,0,Low Risk (No Failure)
166.84874931622505,10818.066795674487,19192.836142981243,0.7707726882106072,21663.95271180721,13073.064022766852,3877.5866145625932,58053.85945998506,38002.61816711356,255.20132426841172,9.243696111943475,20.784581215388503,8182.074873814081,1298.0619262412265,669.3167733713394,1,High Risk (Failure)
167.07204207009255,8693.267583495519,28284.182110745664,0.4266253734763945,42653.34058536825,7009.333447269987,9581.901732341932,45563.83787999313,44458.781841738215,118.73856423975901,8.16994803994458,21.37578697904327,6800.494287853402,1307.9908194841066,868.4636003694754,1,High Risk (Failure)
70.71577792404344,29113.741894600473,20975.4460926956,0.9217977565035089,53852.3954155213,19919.988417829598,13820.827025898783,12998.30370656975,53867.799916338015,198.3536946854987,9.983760776189948,19.39473273345758,5522.53672449252,505.35541173960553,500.65652145928993,0,Low Risk (No Failure)
140.38836594662024,17968.528166886616,19568.24953990541,0.005067114497262271,42807.99844694628,14958.807620081408,9210.092849517992,16443.55490993669,19403.98688266467,155.8850557777342,8.753062044845619,22.172274819546043,8355.924478857685,1802.761874030149,1286.5880365040907,0,Low Risk (No Failure)
172.48303342322845,3311.7371224312647,24472.752216156445,0.2736955159663489,23010.71762496868,28781.619974593144,13655.006739845236,28600.53787419525,55583.611564761,165.89385960938955,8.683871807773437,22.876602112727525,5512.056437269468,975.1041115875983,681.7830018610433,1,High Risk (Failure)
137.44329160150465,19176.730694503494,16309.797060999046,0.43883673808413093,21146.502226939076,21132.7908133972,8629.751931897066,49576.02987125649,48168.28249682268,100.02094215962872,11.659359379370791,19.342838027711693,8980.823788229685,594.7878441984717,1036.7754704424933,0,Low Risk (No Failure)
87.00960092553026,4280.066938549875,12643.770671939126,0.19602920170350768,17517.657596937926,15358.986282523028,7332.254653715859,67455.73695580104,52194.12318319084,284.3520673015638,10.700085497496058,18.212454353275852,5834.845016119265,1888.5449379577708,617.8311429737905,0,Low Risk (No Failure)
140.42099882082087,14947.306634444802,7971.693026479639,0.7832357188779623,47190.61595793634,11910.790292520194,11948.949131826597,44693.62709299182,20432.780944567763,281.1254369050327,9.144856944921884,20.11980302971189,6016.265600066674,1825.8061939691515,1410.3242204019236,0,Low Risk (No Failure)
152.90323614554146,7080.166741239312,9450.175421591393,0.4765881789196347,39583.41314454963,21356.361519140708,9990.916435827823,39884.64068638682,58610.20999219774,126.53584234370238,8.770699872760169,18.90377424604032,9726.680261529,1983.0689206825584,921.2582790901226,0,Low Risk (No Failure)
81.07660375272991,17764.090958359964,23862.35677484213,0.21372115282201742,36171.20629837637,19630.557187701153,2233.984235443614,16786.336759153288,27193.476705162604,130.29778519812183,9.517917001353243,18.084006831348706,3708.6776535185454,1632.6302373356334,1375.395946806438,1,High Risk (Failure)
146.19228767243428,19794.96169057107,7229.926170607405,0.5686042135699344,25967.02633265336,6410.359316502283,6765.540935475215,46548.864291055164,63048.70519175906,173.2392499107284,10.413204750509234,24.432965987785252,3094.9653524610962,1753.805613437026,1215.7818171696404,1,High Risk (Failure)
93.8617437711778,19966.669252104053,32386.879409187022,0.9764156242738286,58858.04025634046,21754.865217637707,2562.9820015371124,26231.217501259194,48150.18139120706,294.67824399579683,11.4557968839453,19.688274540019357,4696.257867595387,781.7113480122471,865.8314176002517,0,Low Risk (No Failure)
214.72564404098338,23678.0529422243,32243.961696818922,0.4793522892158333,50837.99949467907,18599.24089494264,9504.069825580495,65468.33651462667,11414.011664839605,248.967518774079,8.58156037949485,18.661731371886596,3447.212264064484,1573.6792950107206,1272.077149609565,1,High Risk (Failure)
138.73860689272612,27442.73851664396,8821.161081000828,0.7946267910267816,37384.649408535726,20065.810008867564,12403.865642395214,39334.762828944455,20271.547490380406,216.95499573330545,11.590006054406953,23.28868196255079,4814.794006287888,788.9095479638494,1012.5604220620792,1,High Risk (Failure)
163.31600693616858,2379.91258383726,24678.461325151762,0.6862360281158181,57182.967401003756,12016.842756508371,6845.344483524456,17036.04193255514,29830.604908251582,222.8103276489358,11.448050623533765,23.68611782790067,7806.024860201869,1791.2631488948098,1020.7260735966286,0,Low Risk (No Failure)
88.3445637156201,3898.0244345778797,26578.055178458442,0.9729348125037023,30740.803385749256,5706.155155251906,7820.022644752115,49158.92645345926,17581.372940951598,238.99308917090212,8.291871980732884,23.637682409533884,4194.89863815791,1850.8623043641967,1266.8068515710595,0,Low Risk (No Failure)
78.3630194990748,5367.717638987055,18598.992159396286,0.718703949501973,34311.862704835396,21773.950851757447,6765.175144492447,62715.48444725635,18147.931381007493,251.59004409231846,8.712130375521136,24.90007677249139,8781.242024212965,502.8869270553279,1170.4502771851814,1,High Risk (Failure)
83.42980105645057,10340.336684171707,22902.16588339724,0.6450845035298297,42306.35255710951,11893.407665888306,12522.652047603988,14606.72342118802,42614.006457710224,244.76627784670367,8.77055336281931,24.741402432371856,6236.699693446575,780.8723682211902,519.78943198176,0,Low Risk (No Failure)
141.37131058635245,10640.37407305659,15132.679613966873,0.5605087340779731,27966.53618751877,5793.9947185119945,1703.3165896086539,30056.47877734185,53851.412248876695,273.43833556432514,8.181703944919391,23.825183979309283,3744.418300792997,1864.9561610436683,1367.9465686144651,1,High Risk (Failure)
69.53877205514544,8431.392792783105,16147.193255486001,0.24183499495446548,16331.288263710623,20042.607116389245,10514.894955171669,25866.081397325637,63462.16403148467,299.5865867536346,10.210892684971181,24.964460801483717,3643.6186874173327,1391.7568534737134,953.8084074702722,0,Low Risk (No Failure)
111.68437532065502,18574.435071903852,6914.781041291408,0.1651487121099744,49634.90198243961,11124.505398346057,11105.670421360788,10536.31465408289,59359.91481906914,108.5931771739088,8.75935945634984,22.927390051142623,6494.409901193063,1788.830756034407,624.1804227916042,0,Low Risk (No Failure)
145.5294750650094,3811.611584370645,27186.53446204979,0.7097672839415535,20725.942773436487,21692.54392706607,9801.785276560011,49384.54837366895,52392.6178877646,238.79745040601296,11.592186957264657,24.38361562979436,8151.174337638464,1904.0481274695976,1416.9137389595403,0,Low Risk (No Failure)
61.493059172334924,6999.284387246346,12315.172990878213,0.9727099735613863,44464.313782781275,10979.368996541463,1891.925591736386,48230.20596807795,44333.798958035826,270.65149186848447,8.510133946291939,19.795182716291993,6442.517211600406,1486.8922081268984,1015.0280913172708,1,High Risk (Failure)
133.5463792644258,10408.70863041692,16284.419300314705,0.18510873042784526,31162.665802640546,25687.556020041462,13607.927294458357,28851.685206935508,18975.945349894122,218.98120685244288,8.675353139101311,18.811187640306308,6914.115404128508,711.1577996328659,530.7237897765718,1,High Risk (Failure)
88.04847077722555,24732.458600461283,8466.700965090164,0.48331822155225335,43513.45967697511,15095.742411116784,13869.860608516818,36991.85239220981,31372.21588347518,263.58395287075655,9.942039027127812,24.12972908191174,8452.348229718937,1527.1883049401356,1269.6727690606185,1,High Risk (Failure)
182.16253498691395,18141.766035532808,22815.630941174022,0.00987960664205656,15146.156771767899,7205.832551427661,4565.850152900718,50925.590243412975,62025.789495925426,281.9999999713172,8.541379264415859,22.822234713709936,6671.82916878915,800.4295805501707,1447.7485726091688,0,Low Risk (No Failure)
215.7582350683835,8059.83588619691,30057.366432140072,0.7101108919062131,54228.58697366507,20464.447896637656,12198.654981862413,22550.52503396925,35946.80456887309,286.1365606250332,8.570231718057242,18.771083360217645,5443.399721297143,1805.86613477672,922.2331049850023,1,High Risk (Failure)
164.66123792445978,23767.08398534187,15696.686710650689,0.5440122913631098,38029.014940072855,15059.199875609056,1890.9156792636356,39349.74839450962,54804.70773290507,193.45889865395966,11.173987032548839,19.585075389164153,7504.254454495753,1073.790738780211,833.9218809784959,0,Low Risk (No Failure)
197.30832850514622,4662.2207049525,30567.09574927733,0.7209984200449039,56372.76785439053,14417.431482337763,5778.627304289527,55297.642289961426,36857.26760652954,235.67432028225258,9.103886299929965,23.950465231574103,7707.777320943112,813.9093423035829,1475.3735857775573,1,High Risk (Failure)
190.34736075359828,15666.526652307886,14290.416930543675,0.2747450324400229,15759.02317806864,12086.70803480634,5668.776584772833,15891.829944927042,33585.76658889671,144.3643702933705,11.127999009966057,19.656288627814604,3982.1618752754844,1302.7731297960472,781.0667618277957,0,Low Risk (No Failure)
199.3550597993737,13850.693014364522,6533.949143200915,0.5910620780489892,50985.54614736664,5883.526115243144,6743.304228025951,17170.359532136685,19689.77762894184,209.859325949659,9.794318693555883,21.025790323444234,6933.441078660252,1409.3370958000219,882.561764894529,1,High Risk (Failure)
202.03266924132797,8006.437016637127,30159.714634773714,0.06893270212408908,16890.836606986184,6384.713364451321,12137.90245948505,24316.35326704517,11951.192555929705,130.72407627418443,9.671256837959508,21.438899820894346,9228.143555814546,782.5266847188391,522.5679176835215,1,High Risk (Failure)
186.75059116826816,12395.572184749239,25212.519387765762,0.8287580737433393,22174.17930997359,14631.353398319381,9627.072059777656,55955.79053015252,58725.32546338225,129.25596171173476,10.480901571660098,23.197023553326087,5989.209720869934,512.0192919637583,853.9420922201969,0,Low Risk (No Failure)
98.0070609398924,18509.989961297422,33209.48459717793,0.030868132542461013,45138.66529595207,18106.243283546853,4229.601808460278,24688.300809088785,19373.131646830087,211.57383587095595,10.805318168000026,21.183067515892038,8827.569734467997,605.5286299954521,980.5988928486065,1,High Risk (Failure)
153.28664975515073,11898.815351230289,24687.19679745076,0.22126999862588093,47005.82663113228,5280.02788470588,13681.829754001048,10052.903614487243,21774.930339723607,204.7606796414359,8.202410330747712,24.95077370317156,9980.89642291496,1835.5663231523033,781.365903205251,1,High Risk (Failure)
129.00827301456235,11587.426525247622,12646.45869233551,0.3562268874893756,46099.05839228244,5077.77194058107,1605.7083291216936,50400.59002883679,23411.029403943583,130.5511695922042,11.248512349902867,20.301168710771236,4723.189985385523,1879.7777295632145,1114.0782093659661,0,Low Risk (No Failure)
138.65854001869317,24509.823539790163,8796.333761402244,0.7059066693266582,59156.00703070758,15556.481524676925,7375.609200294812,12586.032067499871,69513.2237162301,189.81586899348173,11.66999199168258,18.329589164746963,6155.566960092116,1391.7102165091605,546.6884939327946,1,High Risk (Failure)
191.27801351684397,25459.406075562427,9294.941233327376,0.8013122648554728,49665.12547635701,6870.815877936674,6774.40985596766,56000.21806061488,60877.2269408351,216.18359725588874,9.222802572635986,20.663414305209326,3244.916455564977,1877.0322677915951,1121.1741953377214,0,Low Risk (No Failure)
122.69749971008416,18797.53111676867,6097.094370888746,0.7658659869388081,21111.319750613653,16375.294647248023,10870.843831618151,67177.26555503302,31223.823853431004,222.97397297976391,9.902093800383941,19.95112525828973,4346.047866813031,1150.3751424116763,1447.8307205417746,0,Low Risk (No Failure)
169.49027982805518,12808.038419367384,5871.163479793233,0.27151657773307136,57545.274755300496,17877.423315073975,6606.3491852884345,11219.67400873539,49850.939166138225,105.53491097342693,10.973500358141145,23.5587276222464,4466.558230126722,1491.493184887143,919.6690184011039,0,Low Risk (No Failure)
97.47253934821346,16892.623419644915,32974.876235412186,0.7167463829100775,29422.033676941304,7349.343610209569,5878.053855089836,12838.171960211304,49134.36003341869,270.0084267162172,9.338643023837268,22.492121100201196,6297.242159851945,1941.3696064373823,807.0296605801834,0,Low Risk (No Failure)
82.28353162614196,27395.687600196197,9622.271974192505,0.9094771083678906,37762.43717125819,24800.534829485612,8102.203255899498,30449.32133118071,59356.31024858652,116.41376902351965,9.930449995555914,21.18808087554316,4104.609704858383,569.8635135228112,1413.9512865151337,1,High Risk (Failure)
113.52180619870914,20153.621919568504,12732.201839345558,0.743888144118619,56267.32164181708,9978.67791300291,13467.582191828355,50395.55843480661,45891.09488360177,162.072574334639,9.298902490025737,23.531244901729348,9956.498452950778,558.7312414541749,1288.2890588402506,1,High Risk (Failure)
156.60727247190204,28323.378180199517,31471.896042990913,0.1699962967480012,33597.29298204911,27900.6379837987,8642.861665250435,54149.18614278557,28471.081228826177,176.0411876864796,11.894302066701007,23.033257489198782,7656.436277433873,1348.8798826201141,776.2443604754977,1,High Risk (Failure)
161.46274212731788,25932.686364866942,30825.65084130346,0.6674280060069894,25236.404099083105,24345.083281187035,4544.5148593296435,69797.71572547732,48862.38609514261,231.34792537046937,8.711991625463398,20.21853178937414,4585.833874920908,1210.7533682555636,1188.8180198785085,1,High Risk (Failure)
141.00256951923245,3742.1339984572587,23044.133026436222,0.7461148572032363,59870.11353057327,15147.85857818553,8686.590531511665,11550.468344321394,48196.995330853766,242.72792535544022,11.964027259946858,19.021954856086026,4534.075845402787,1322.4520216940457,1186.0174479394727,1,High Risk (Failure)
175.53135011243793,6009.962230151532,34675.52493098288,0.4882099782764918,34759.53625871899,24639.702101323,3532.012232120746,28052.699071652914,53390.755665534605,263.3374354458102,11.277645864515089,19.707335636924114,7334.155099595245,1934.9420456509824,1059.4734470181493,1,High Risk (Failure)
185.10254607950236,5190.941493301558,18876.019561349014,0.7510704788480105,32662.041055540358,19847.030930361805,9461.467170952754,23933.476865339173,19472.302845664555,104.43525131283194,8.699274211247984,24.52166329630682,8865.653127345642,1805.610935153462,1294.8798539834897,0,Low Risk (No Failure)
171.27475307037795,12124.662170299594,17027.081677373782,0.5103754066288622,17374.85621696768,15133.800850554344,4537.326807048594,55640.016660929374,43874.5220138278,249.10265246870347,11.789676506868322,24.164551024652244,6677.643229307652,1226.8157464726246,966.2855106777537,1,High Risk (Failure)
128.79321916477147,7086.892426844917,10518.42253542152,0.5867667638280274,28918.20201078496,17064.404593025185,6126.128101302137,36452.62005086825,67500.39510333365,297.6792498035363,10.19115042408198,19.885183675585875,6151.526785472333,1295.5482117254523,1165.4360057237939,0,Low Risk (No Failure)
120.09327242239104,6195.753630414376,32765.87964940685,0.9203002705727481,43795.33962374634,16794.513222815727,5362.031403430252,60908.54330836985,45639.581121314404,143.47360484373002,11.039551528454155,22.948709843441833,3156.984684905693,1313.593479103915,578.0676892574,1,High Risk (Failure)
168.24214172435944,12765.718301247483,14214.498505698564,0.7534497102421055,43603.26251260628,13468.719890986054,8490.522055191625,42351.0752500705,32078.347321243546,102.67253028478194,11.889329548514276,24.6295673361337,5561.281155850088,1752.3553707764806,1048.1255637554632,1,High Risk (Failure)
67.7097619829274,5776.814661346447,15361.899861907883,0.9582984830713006,47371.01242877354,7927.352028499952,8300.929851543577,28763.686964037668,47888.76312392749,121.07918240474551,8.003059065289992,20.03887020634384,5451.32091056634,1711.5345284187226,1034.527061402239,1,High Risk (Failure)
61.47152825866074,11938.851691271522,11155.485001854822,0.4012148277113289,27786.734020051983,5276.159001416209,1551.2714261296956,17208.546301335708,14285.50917597186,270.5603866855305,8.512229420275007,24.008532857711486,7046.9753937213245,1328.517906689836,832.7061081562782,1,High Risk (Failure)
66.148215833972,11295.442717951153,13882.462674063509,0.3884369385525741,30961.669115589408,19966.476387162344,11308.167326952298,18094.34345708053,14816.630994976465,194.55673516134408,11.613797434623743,22.1233031675585,8475.90504069261,1355.7645748974983,546.6815289802728,1,High Risk (Failure)
76.15649709084178,13365.775638267212,30722.445399524026,0.95548089478083,19157.731302168857,10139.767911409024,10437.254396563683,28052.539817459136,41863.93830422354,243.328172208332,10.592635623455774,23.421802251324035,3154.5259473002416,1447.8289952818877,670.0923244308694,0,Low Risk (No Failure)
84.92372169282723,29869.97700911942,17831.035124577156,0.9713962669894982,49764.846041979115,14956.440502416408,8949.157956780733,24465.408972241283,40384.04377586325,260.6590947630726,9.024522374443135,20.566062024921166,6500.264430416517,1126.7891871718782,657.6926070124746,0,Low Risk (No Failure)
167.04357397265733,4472.656866515425,20296.221689192083,0.08453261529357237,24455.295880456135,6587.63673204163,3933.6403264257465,45737.30066984628,24461.75552538157,170.0035218595807,11.479498587033822,22.89653456019908,7834.718149186047,1567.3426936085211,729.1501988344853,1,High Risk (Failure)
156.257891223413,16133.09538385049,26724.079364978996,0.38303835041826184,30994.28387285772,15824.469151437424,3121.1219547849396,25349.72227282237,48597.2762295924,284.1292070356991,11.805205317702212,23.610999618662927,6075.501040901285,596.375262615842,995.5653582353707,1,High Risk (Failure)
202.3230897670021,25970.825157911862,21135.13469447923,0.16022877602200503,57193.66366424613,9413.227601316728,11097.052089493589,64978.830533579276,46851.49278497387,171.40961788332518,8.587333121805305,24.430351760535377,6517.067469495085,977.4595658356604,508.21066650355027,0,Low Risk (No Failure)
67.36042272348044,29030.19474203578,9992.428529328196,0.5251757899342241,51060.621478277055,17160.093877427786,9992.173727171197,22598.056521616265,37247.25898890021,212.98242532368772,8.530799255620517,24.61873194620061,4831.784128425456,1094.7928606380124,589.7949363068311,1,High Risk (Failure)
81.90170081100916,10816.699503338714,6744.013730804858,0.23752304184806883,59685.3616327874,23387.110145717874,2240.925978113288,53558.01685407714,62835.729569185816,142.72653213073477,8.653238566959072,23.75064442467832,5558.745960288525,815.5890059337848,1444.4367954338945,1,High Risk (Failure)
115.23075335907367,13335.338391829526,6632.3038325053385,0.4155599944371422,50896.676863489585,28229.753413233255,12030.857031807007,43001.29850532523,44205.11857129719,204.10502760282043,10.206381889464867,18.094451008354802,5756.099990841656,902.4521457109056,1214.4051877291806,1,High Risk (Failure)
122.27687547068615,8155.675199354046,33797.843617505045,0.009730960155522994,45340.8126298952,29134.902974535293,13037.66873184737,54800.91313910412,60112.99559616559,279.1712925203996,10.377258417245482,24.92893792015467,6279.422372167985,1261.9755917886923,564.4376748134252,0,Low Risk (No Failure)
102.98837750159137,23527.81964996815,30034.212303878852,0.15457215147476755,33231.589726114034,14328.713423824003,14968.402860212875,11467.819667144357,43325.42520532643,124.19947651550132,9.736654779171099,18.358390134535725,3476.060580764666,955.2115692860134,1155.9687408649843,1,High Risk (Failure)
212.09714351000898,22357.72206395311,12119.531126116734,0.8829524558474972,42352.06974636245,25431.470275347,11703.448418004662,37098.461636064254,68203.92659540025,283.2098679199041,9.287413599164658,18.483393825449394,4606.777410836615,517.5581661388997,1006.8543220343805,1,High Risk (Failure)
184.0844186712017,14206.452252190284,33486.12311340956,0.08454333538012304,27515.00613409604,16374.342376946957,3299.3096926841354,20107.591571678695,10227.144017943805,200.27518790915667,10.435137706549657,20.431744123427514,9921.121438403425,1114.346756296607,1369.909222881396,1,High Risk (Failure)
190.53329999849885,29318.20017328873,24248.59996143227,0.39796037644511484,56071.15680499871,25665.274158799166,4101.462077501383,34937.09118211926,15188.716261364261,119.17607503177827,10.207671480253081,24.22429088134783,3379.1038311350344,1435.3482948305816,1017.1667156215617,1,High Risk (Failure)
67.93829973421398,4942.049673652298,5778.830550617628,0.9912664987450435,50194.416618942065,10447.326604729305,8852.908906782197,51532.83555563106,16119.733133208274,269.69682606203963,9.992089623255536,20.631719916357095,9726.501110239398,1867.1484044130352,865.5816984832893,0,Low Risk (No Failure)
98.72720253800439,8414.320476622619,13449.590290533915,0.21195909025797355,39692.556975708314,23045.244897142926,5513.649141689093,27244.563300310994,61131.431986286945,258.46693936319275,10.795935956287032,18.92885931801445,6004.7682896286515,1551.1503408606995,1431.7836931581412,1,High Risk (Failure)
141.71956841241052,25709.404058336095,25454.99096098576,0.34238176600918835,45076.3506278449,7456.630145333008,3559.229124049931,15642.650770066326,68282.75291548064,202.4774470190046,10.192045901264754,20.911760295712998,5232.420314506686,1781.0366065353244,615.8450921570573,1,High Risk (Failure)
209.87679819787752,16612.52996092966,23799.310499352752,0.523698386271309,29210.67223511201,16717.01296782062,8876.35640743452,24491.59353726155,25088.81170082665,237.57534839447803,11.547491621668977,18.76430878296084,5754.193831877463,1730.1629207176236,1403.0430609658256,1,High Risk (Failure)
116.49646223014231,29954.21578378945,6347.284895261946,0.6501635325176437,35507.37210293791,7911.368896465077,4180.124476713654,59147.16273303991,43463.00710904515,193.98569405893508,10.285190075647773,20.824530802631998,8097.602949441098,1126.3039923573206,1226.001844335548,0,Low Risk (No Failure)
119.60532380152813,6180.237425874686,21230.908671884346,0.5040710038566732,59462.45073129792,15250.538082801608,13913.475454467462,58499.824712756934,17813.26435239528,225.75154563190802,10.899247194379909,22.389760724836847,7575.855980543382,988.359018557948,855.3265627329415,0,Low Risk (No Failure)
213.07526942229597,16923.413454492962,21150.184710500485,0.5386699596854331,51218.651195957216,27698.063435423024,13662.64814795084,11341.820478824913,40262.91764911181,217.80543857637963,9.200888341551032,23.18515862075996,6207.298700946072,1161.6747194518066,986.6382697453126,0,Low Risk (No Failure)
81.5096207052995,15668.467455177562,30266.3024063078,0.5960985276700957,19837.469444650906,27209.860438675565,2674.1494947079814,29418.650086596735,58824.009437442546,224.48929191458825,9.579265347447206,23.180988163204354,8890.570953702201,808.3074270394396,933.3903946721024,1,High Risk (Failure)
177.51102913209462,27269.63230997987,14695.693544953801,0.7338301194214559,41852.5030215313,28044.777608096632,4512.291707455277,57016.644135602066,55653.546977448656,239.9320754609864,8.03362453523319,18.92822765534148,4496.866903446002,1805.0936267681564,1335.3575859668385,1,High Risk (Failure)
140.41057223415078,7315.643251259487,22122.312251999596,0.316537731334959,48326.73897642841,5931.430267194991,6502.395615962191,30304.941465706557,13849.08684191409,286.21865580901977,9.158055183404027,21.308811545485607,9879.584947669673,601.6029074105342,1397.9253838031927,1,High Risk (Failure)
188.01135499186552,27970.155955941107,8718.175827933184,0.007697802954712785,59269.29605560059,15665.069511497071,7100.789070729125,44186.23023447409,46405.34086851428,169.71769704212613,9.35364473451051,24.193554046500523,3105.70085453557,1668.0605773375996,1023.7259683709661,1,High Risk (Failure)
122.2722685974661,29032.04440598712,13078.11272915623,0.7338809732737419,56340.78800744839,10492.072090631817,3989.2685319709294,39170.338367720266,56216.433334832705,174.5895464892989,10.41163272633481,21.928310396558757,6222.855010093284,1752.1838890206157,1413.9995204779161,1,High Risk (Failure)
162.81043192563064,16682.203307715743,25353.90647231482,0.1627491077823806,56110.31501276863,17545.50289650751,7913.642264483752,49020.0477121556,55047.27549976067,226.79989967107906,8.018056191711498,24.922038625485108,9605.828879283621,827.0596495982339,1167.0212720451502,1,High Risk (Failure)
176.93925532418567,10242.220461276522,33694.94374331295,0.2660877358689496,28407.320642806757,5372.719722075462,9823.971181510633,51018.54582916956,30888.96085881781,141.3533110458867,9.164850616981287,24.122799725064503,6868.547762405059,698.4121759868672,1435.3202108239848,0,Low Risk (No Failure)
207.07328496859603,26910.312570846363,17981.1474387965,0.9501683407630936,25804.315332531944,28529.51023373167,10396.2729463064,31205.817897392975,14334.895757661594,121.47285907817505,9.12793804337196,18.29153159589931,9823.290883354588,1832.1927151575976,1450.0463080638774,0,Low Risk (No Failure)
78.91497956657417,16760.62622945953,24181.72657709005,0.5227857330514172,41336.25688731564,26946.725172762817,10307.189873651558,11462.08555954979,36127.43485543004,247.90272137163208,11.016434804601733,20.13896634809916,9933.754376763645,1915.9637494247484,1045.2693386944488,0,Low Risk (No Failure)
170.72180095146476,6889.047194681802,29172.91497629021,0.6202300525347562,32564.094564816838,22946.096781718355,12499.18843605046,42244.79991250131,20062.533110312273,183.56962928182304,9.929541005969057,21.592380461109045,8414.057267001834,1895.1983134954592,790.4811794850623,0,Low Risk (No Failure)
78.53904952402075,13445.335266791333,34354.83394015372,0.3929444393733599,33578.66717776828,20936.590721940578,5656.472089248587,26513.353550757165,67913.0185996395,285.7794609057664,11.978751539550432,21.674768196413034,9033.210269129657,1505.2513426282176,927.2581942444913,1,High Risk (Failure)
113.58489834513378,23640.279820977234,24540.083174006166,0.3841601830924817,48418.54272903844,9402.148960419028,8972.222113669657,59414.54147877706,29477.373462992346,173.8699124321701,9.924606883410725,20.989236537508003,6048.578234255256,1546.0655809753828,1405.2943759321138,1,High Risk (Failure)
153.90984104942513,4779.394454367517,14857.764890841645,0.1330866391727974,24033.39824245845,22909.996259084648,11476.231064673173,31049.48881119157,30829.1416104618,160.9307696592738,8.211489334583092,22.955553962301245,6993.030443514188,1859.9357453229848,937.583062401181,0,Low Risk (No Failure)
185.40157479745716,26928.64970847752,34315.48719784988,0.06205105263543276,44300.6585228546,13429.125321422296,7192.4639890732515,48234.73596922599,10664.486933123635,135.95185270539264,9.587340206559062,24.628205230880077,9697.141417937906,504.05858700555115,750.4520650370853,0,Low Risk (No Failure)
210.47337349646628,29391.923382958354,21382.964240098725,0.9939977334136711,27833.79418279892,22673.47432304687,14401.99852552436,47036.43210780172,42662.199074042925,217.16881030373963,9.217108731118483,20.328077125580954,7984.891482362482,564.5452497919136,1462.579581773543,1,High Risk (Failure)
168.0938837707902,15263.849270401273,20804.0875656781,0.05247768082940385,32168.42484851941,28031.77956548259,1947.1845940414855,49397.63465009578,31960.43133036527,264.31103578163857,11.730766146302155,18.360766437709344,8425.489937672668,812.2171308467448,1413.5877459024496,0,Low Risk (No Failure)
62.65405262845698,17397.0622528236,9197.569316809822,0.10855535777264846,18241.199957865134,11502.310863372388,14178.764917264394,22754.389490393653,64898.985710965746,262.07729217313346,8.957871989632242,20.828544296045973,8023.11994677544,1682.782104391046,1343.8836886031545,1,High Risk (Failure)
143.9024430924128,1216.4310720993628,8244.37827011596,0.5881115704556024,34303.468905904374,27523.362388232017,1936.6508061744003,22869.037472219337,27429.24995165983,241.2699521186403,9.214991670710397,18.292534178371266,6635.814914043403,1611.3044997980805,1087.6666541328816,1,High Risk (Failure)
208.58088993846306,22008.247867810136,33624.611813575335,0.2878343403015118,40499.102325937514,17113.43356721381,14505.765846218854,62811.411660164486,67872.06530845561,269.1670101307363,10.14138355889309,18.814351169638552,4623.080102167547,1774.8847666772995,528.5266594163112,0,Low Risk (No Failure)
121.61563657630805,29034.478060535355,12587.354166688612,0.517014723886716,32172.41480922264,29066.04157367203,2382.4540617323946,10949.836987185636,23890.66266668988,275.58617804592996,11.184337401739663,19.267947519288146,9968.95431299771,560.3036670936244,1232.5829199625043,1,High Risk (Failure)
192.68588789068087,27214.63889050679,21052.21249337644,0.33482785155535066,46202.438742689046,10913.00355683066,11157.00813926931,60981.09013964064,47163.24135815809,233.40928327634575,10.010348406978002,23.937297035981963,6781.511072276065,1419.3633220108766,775.1675904219105,1,High Risk (Failure)
64.11034317910531,22424.562838639333,9608.945611798,0.177213908269094,44942.515672560796,26836.32833915851,6972.8945450336,13666.861741387764,12639.76180436759,242.42642203565933,9.051890457932807,18.980457679196377,9579.670023059429,1312.6375045484801,1058.1640142348606,0,Low Risk (No Failure)
78.8082080240352,15689.949997347869,18876.04829887118,0.3261497171193616,31830.233971798018,17787.21470304884,13846.764631391365,14559.45974839695,69158.11935738563,158.7342610484335,9.0297881820658,18.8115776908502,6411.086292310184,1852.2614230181746,646.918353307816,0,Low Risk (No Failure)
207.35912337545213,26919.4514450964,17622.80623329382,0.8849134572119935,28229.038384113075,24418.684154597267,9108.72916493913,38116.233976793155,55514.11567639376,152.7860711764287,8.080472714749268,22.81000680194955,4086.495145973974,569.4944822310645,1476.8015715662536,1,High Risk (Failure)
63.34945885227732,22300.124169349707,32858.18988731058,0.7264709321804432,32612.57989720213,19348.075671741244,8694.940474011557,45873.268637184505,47129.607678538865,185.2486527879081,8.187149429921643,21.347655851701337,7793.950060413219,653.5264077705144,976.2527204847523,0,Low Risk (No Failure)
183.2651868492469,28487.84045035616,32464.189627205455,0.07559587516160127,19073.395407714594,16313.118105567972,12804.917297593889,62327.22429932377,24631.4061651828,143.43393139892277,8.738338668108314,18.311988662356363,6867.557121726989,798.2433159984336,1477.1499686073848,1,High Risk (Failure)
217.50434891256833,8200.336909294532,11266.666781445294,0.8883636828012641,43522.25041247742,8306.00311026645,14568.341729468195,48634.18356614815,63672.27167536771,180.2055333422477,10.299252650695829,23.928871068519733,3652.4781211491354,601.1645796507537,1058.9003648810794,1,High Risk (Failure)
99.75826237031453,28281.774917799372,26151.03566789998,0.5517900635794957,36134.20154992307,14010.396323700035,11865.344193746678,30930.73173676911,66557.8477826992,196.89471279597066,9.659636144446276,22.049645713572524,6747.081569936325,987.1698034412705,898.5204129926908,1,High Risk (Failure)
180.80670859940454,19210.803324944325,20959.15203489495,0.6875449055283308,21272.60281786578,24564.06225731684,6796.330518848874,46364.84665012945,10516.109105962922,158.52577160256828,8.527670989686408,24.953746119715912,3712.1046929706094,662.6112632797096,1177.9708644339175,1,High Risk (Failure)
93.58489489529373,25695.860600499884,23775.751912103515,0.15794637242176812,16837.50954088785,18553.952688083722,13441.180673326557,65909.15609536684,40435.90957540728,175.4708458579738,10.450236982681117,18.051296848783632,8392.945159198123,783.8676106561849,619.5781907752903,1,High Risk (Failure)
93.00033821378442,29449.855184337208,15405.710327866685,0.3064577313504506,16001.255647285134,13388.703237657732,5806.177673688278,26876.782963572496,59589.255302319456,126.40245534508202,8.5766244419451,21.141404170085263,4049.5094550710687,1558.1841026801771,1095.8454810543553,0,Low Risk (No Failure)
198.30931949893827,9950.34680719457,12873.68908954671,0.37494771723866394,19834.10195716843,14734.021032022061,9122.182739450838,58751.16043457657,50205.332229562424,293.2950038905353,9.649586887458193,19.140532878589703,4877.7989896688705,1452.1771895223558,1228.2920817482832,0,Low Risk (No Failure)
103.0076184048317,3269.9599411664,20710.829967340644,0.7904923562483306,35794.357088674624,21650.58604521897,13824.0969177452,61129.55703489482,49933.81297477491,255.86186109038906,9.42219965279699,20.060176591001706,7425.475554057478,1036.7220500605945,687.0054249286854,0,Low Risk (No Failure)
145.6886103807476,5328.772367408171,30474.099084833662,0.11292659128887506,42813.27058747478,15201.18327336334,14906.031660181594,28572.284325300265,15630.289201052306,121.90234904745216,11.454149888010388,24.239704969980295,9678.901754028331,1132.4334018125865,1045.6125140540066,0,Low Risk (No Failure)
193.73214846568257,12604.50291309657,28508.682273302893,0.7689132100912617,46885.27058618777,17486.21798314107,6510.801578961712,57251.38845594123,29540.969892461057,266.5348034381997,9.135119048446537,19.686934067627014,3683.92030552754,522.136763187671,1080.8975441083307,1,High Risk (Failure)
178.0591229698448,25372.839765834586,9482.957064260572,0.930703993192474,42510.135612882885,27078.922216551357,11031.540920926946,23541.247082831724,51573.58623682754,115.65819022765696,10.24625772325086,18.34530902555415,7911.494372505771,616.3924684267744,1150.7054225947727,1,High Risk (Failure)
139.82210455221696,6653.340300134635,27840.489686086774,0.6349950702209236,24374.97858698412,9486.21657201511,14945.033042599114,66729.97084087163,56713.94952043321,225.7480491318114,11.100580040117087,23.844538586662182,5460.104964249875,1661.8266540864017,1294.6962043050462,1,High Risk (Failure)
116.60626539782976,28147.641574663903,33054.86032240334,0.7556077135017982,15937.657181793642,20296.287088293215,8930.689550759367,53410.75108535695,60291.51477572726,156.08736342361703,10.375202664226528,23.535824472765185,4610.967380982033,644.1142408821166,583.8501812087898,0,Low Risk (No Failure)
80.495319418592,11632.493302797238,22660.669230080483,0.5924746475636149,46189.997679617576,9045.353512445183,7748.768628069658,67792.26893186501,61217.04981037463,115.1180921578674,9.562871265969859,18.111732111831678,3940.489847484924,1908.665743680149,850.0290649055664,1,High Risk (Failure)
141.57664152807322,13577.98738211121,28184.134785852217,0.19159494968442303,33095.28235415807,27068.84520614858,5807.129122324743,64270.596390308005,43264.91672511924,185.03503132265817,10.363403217005102,18.08889129743215,3663.809399705051,1439.2855177796314,1279.284683577158,0,Low Risk (No Failure)
73.56672256732851,9281.808870920455,31160.892045286,0.14715770096372338,39255.37069021349,11306.784467862317,13017.595536914247,62874.59922186645,54958.48478207399,135.84543112100943,8.268985673421094,19.065678700217166,6575.26421617136,1161.59842686839,616.1749835467174,1,High Risk (Failure)
152.00969175341035,15796.17457786554,27015.91951981946,0.7520443368826271,33426.080175417876,7109.762400921911,2829.366453947702,60685.91149342068,22017.725377202194,174.0393682242231,9.515430530781586,19.376120046184948,3294.608941545433,1994.3693841649977,860.0099034288312,0,Low Risk (No Failure)
194.36825706630827,29306.271641703046,8189.174639388542,0.3528060092659058,55559.29493236129,8049.360857564878,4847.25187797143,45951.935657034264,35552.784456643494,171.6253747551911,8.706150196037342,21.16431807949224,6373.360739821101,1858.2803079601179,1331.9544071100527,0,Low Risk (No Failure)
71.71134780295098,7313.294166859741,28608.704314371244,0.3163339091885522,57834.771259250876,19911.139737696598,1298.9407855631982,35296.51642002932,52580.01697505862,146.7512701794415,8.532430099665593,20.235672012597323,5661.482397305468,509.71455384201346,890.9610757740036,1,High Risk (Failure)
177.03943424690226,1281.3102927682244,21588.40680733677,0.30062690653864854,24425.356876140304,21965.59641850696,10331.925319986261,54826.44451501303,65683.5983661271,102.96748270095541,9.239211317283758,24.37179373986389,6735.7205515945825,1489.2782409693268,565.9265822293826,0,Low Risk (No Failure)
216.13633271400553,16530.73171983615,26726.1473842511,0.07608937134957627,47277.22601343012,8976.596015454583,6217.121691153158,51302.05969115356,64051.3676159963,171.61237861902538,9.813437804607876,20.433998226219607,4554.51726233025,891.4414191216018,1222.735135947622,1,High Risk (Failure)
97.33325162389227,14625.517614526572,29018.709692384462,0.7664050235684422,20935.67724738604,18568.082467624416,6775.212152746783,25234.108300372864,36774.879358850376,192.81418949204624,11.850171935176522,18.07815034525011,9235.633734797833,1802.8542527189488,1454.0948107142415,0,Low Risk (No Failure)
161.30422009504358,13819.920180424177,33595.32614789417,0.09141654911451769,45382.30930939501,8327.456720735272,3502.827431271584,45026.07383352014,30940.359061340427,136.03202660412634,11.464965192955413,20.877176337280883,9599.69714871435,1140.949816729197,1065.8989669835696,1,High Risk (Failure)
153.73836615256306,16502.081797925137,11494.717017983521,0.3210198105508997,40345.57809938309,12895.994094935115,5657.669538636952,14668.852369153803,56043.61273042965,147.31430545715722,11.523879554900299,22.056445782764506,7441.644870415179,1072.7395726730515,1023.4148587854598,1,High Risk (Failure)
192.55018735023853,22693.007440906073,19273.90444983803,0.7354572516754213,38860.60617266511,13980.238312237861,12550.335342716562,41326.07111237796,30811.71877013108,234.8039975632621,9.351554245025445,22.831884609478838,5590.862368780294,1656.1381907137509,549.2099700577976,0,Low Risk (No Failure)
112.58632725918656,10153.363245647415,7466.996645318016,0.40058935731981116,57667.32622591376,28190.942951329667,12262.18032339996,43627.20181603927,24616.015819393557,212.01367596756558,10.447976026320173,20.757122630105336,3962.9634229298545,1067.3088845726152,1346.6413379362252,1,High Risk (Failure)
211.75252911394506,20325.81183615265,19855.14776739999,0.5757500835203105,47387.66260203189,18463.41921918559,6364.1638236937515,19169.58527532155,21024.361855705378,259.8753396373304,10.829268288097216,23.38731703374201,5130.376437950055,1284.296422662623,1046.810592023354,1,High Risk (Failure)
148.6083585139802,8284.568133529549,33508.521505114564,0.5652263811708307,37025.033155406156,22620.05862102152,1239.6042022102956,29114.76718995033,63834.72873305566,250.20245407133055,9.170844009241517,24.325909172787068,5577.6292424555295,711.2335571376553,945.2587933096665,1,High Risk (Failure)
159.11845536153834,11783.266752426163,6600.204890155505,0.33811577165956275,26778.442748239606,14537.375251173804,7771.687372065848,34732.79884221229,24001.622204836396,244.64874890328161,9.729767384798551,22.448793925655256,8214.152999840946,782.1727557253724,1463.8290426003434,1,High Risk (Failure)
84.99305098985951,27143.089681921723,10475.946530260218,0.8057358218764082,26220.95835564054,15142.764716458289,9017.273727688975,26561.92616743579,39123.6675858513,133.12514844873058,9.708747986907548,20.073458784925077,9905.69019350562,889.914375903042,737.5815083862706,0,Low Risk (No Failure)
141.2176605895128,20819.453039560845,33652.95668497058,0.5304630000408154,53030.05858820225,29119.593943635246,3222.3898056834405,47944.55732455257,48314.60920694169,181.5485888121823,9.538264929940974,22.354001073190656,8473.100288243284,683.7129420663833,1250.814974010194,1,High Risk (Failure)
110.29601810939974,8679.673331571244,10255.24591112543,0.6363026718190556,52356.45142736674,16384.192611637023,11482.341927540956,63817.489570463455,64874.339696024406,193.1695311906533,8.372126340237601,21.46609306934799,3434.9711816537624,1642.834585138447,844.8981172582488,1,High Risk (Failure)
122.8369189234266,2910.8727859272085,10577.051346688011,0.449130565893491,18653.17674262618,26305.219632772165,14341.344801229734,49671.33595333356,61686.59199381977,245.79119309721312,11.014889166900891,24.763344846485808,8689.492141759587,886.6964367563517,1489.8725697492837,0,Low Risk (No Failure)
150.51919209812627,12652.01643966755,5462.44875345223,0.23325764145399797,30160.32833916478,16483.011550495045,6903.464040093913,25012.04306676615,28992.207119902294,125.78025023268955,10.067582927879299,19.835979683128144,4190.628259380799,917.7641057756053,1298.7612374044047,0,Low Risk (No Failure)
196.63391471286755,13034.934992751874,24962.14377914762,0.5055417234297395,44968.45282381649,17729.90882845149,2241.3305861099443,55435.526508671224,32754.597833040592,268.1907789270543,8.180362152185268,20.774656923420714,7730.069446275037,1993.4500270126534,1333.761560902065,1,High Risk (Failure)
202.19969277903635,2508.68889585396,27382.46469718679,0.8301169113081226,33502.0487079888,21197.004337807564,14338.635758303157,29299.307621969205,34944.04800331914,254.4279760236832,9.107089113258912,18.90142812167998,9417.55192519844,848.0459357680277,1301.584167296808,1,High Risk (Failure)
114.61098335200833,3059.7124618304724,16738.305662208368,0.7989625252569712,35703.23973891733,28442.832091324366,4730.474045090996,14139.183545214271,39147.24449069565,264.4781016886102,10.270539760614842,22.909058762050797,5320.834019107244,685.0012260856529,836.2841246466526,0,Low Risk (No Failure)
158.1820644783014,18088.752823943345,34591.957294559,0.991956370803152,57333.86036902528,16874.175959755856,11914.97495320722,24128.87757918948,39311.182039327214,114.28774295046117,11.701653749170129,18.752521693112392,3861.968697889798,1637.0444180429377,641.9577365796282,0,Low Risk (No Failure)
189.32291379460452,16126.385876742526,22264.258336590945,0.9335623116027332,38382.31929625558,8163.054287590172,14083.97577115628,24993.43053427348,68321.09038908669,162.88058753745764,8.397852792617195,18.20186554048604,7032.547756377786,1895.6829125278937,1385.0647549504083,0,Low Risk (No Failure)
181.76126775926272,12109.011722068695,10770.294694250642,0.7882051110716313,44886.469075861525,22058.710662112993,1263.3434042735253,29839.198363598367,57853.827197784994,104.70827754925315,10.209661112088,19.506564678556526,5079.883622349655,550.829978998219,735.5086458086641,1,High Risk (Failure)
101.26202966931237,26881.60372460834,31188.461912270057,0.3681335899811382,27776.323091327507,29791.48864369906,12168.891479268856,28747.65055295063,24266.742282631596,180.6821200676768,10.438531571284912,22.99781245650667,5041.272775806904,691.8093248763951,726.1441932639858,1,High Risk (Failure)
96.4927635118292,23069.173505537106,23207.668406796212,0.9467897767251591,34812.562687835336,21947.698493371114,6402.65748217853,23534.52503962127,18596.73567381284,153.08763825425427,11.999365201991687,21.058954690786848,8460.136401532047,1417.2801643523953,1495.2289257384755,1,High Risk (Failure)
112.50871724761792,3098.103131245663,16914.574998287608,0.8986118076342223,49506.164934313085,19440.272614343754,10509.760750630208,10150.526490537803,14845.985951052367,146.47044900783752,9.906845654551772,19.76609490823031,9653.564428478563,1034.1372186998296,937.4376852945838,0,Low Risk (No Failure)
70.40825487764472,17368.081045612682,31334.97810727443,0.04126974737462186,47590.27067880763,20765.932223981094,14598.937451204769,43681.30170061242,15267.437543130553,121.23277551654161,11.52124878699927,24.51070901317638,4038.7630644115516,1557.6920849116702,1259.2481765989892,1,High Risk (Failure)
161.8198850453399,23144.7039088106,23634.002205449942,0.16894409145158495,40505.99297121199,19972.09123925728,1397.46725512587,36155.597316498635,26097.943246048148,179.59923913090114,9.044206155333633,23.216133562434106,6661.388465305648,1232.7342537040317,916.2382434624717,0,Low Risk (No Failure)
173.16462590490676,2752.6598032763577,9885.397258372843,0.8689994079518027,17893.568890107796,29928.42538408355,7446.5024733008295,49189.79013814679,12968.112087193293,110.34444466823041,8.641723851596648,20.068625076466006,3401.88992550636,639.0825897578266,937.4703869643329,0,Low Risk (No Failure)
191.39172520803623,7222.379782692645,28511.089662829258,0.5499210705196631,42680.54803432277,17501.781266845,9474.690986485546,52516.3290848134,25160.37168527663,295.9617603848092,8.806001856371939,24.10584389464065,3524.1379351939713,1450.321092879737,990.019685221733,1,High Risk (Failure)
143.60162897369415,2280.221300536208,30916.002679646248,0.4746481577818049,25616.538929742565,8814.868455377307,10245.770337840559,18021.88253811226,32103.4368507751,244.29785440955698,8.159630852418807,18.245941208961135,5244.152367079321,1438.4995427050208,1342.786677155383,1,High Risk (Failure)
201.5768188313607,15628.210151741177,8300.6372897443,0.38556288011032,58370.5821508836,18611.33038616961,8248.345110918375,34584.72538000181,23240.931289835855,155.78375916893077,10.711515721526665,22.215116775331804,4066.064637094989,1335.4039601706531,973.7399075840227,0,Low Risk (No Failure)
81.16299441575707,15988.266264300475,17466.785963699498,0.08238173907841062,52173.693133351044,8290.13873670873,3396.3012466162877,18159.619050150843,15519.73634513816,210.7419852065221,11.796947251743651,19.901110941630517,8897.555588563628,1443.9038044341125,1307.1680483499722,0,Low Risk (No Failure)
124.38500148788988,4583.602227385224,26902.254998099874,0.1686068062895143,56895.35143421055,9072.567332324714,5269.1747946602345,42116.10649771588,66211.79579710115,179.970527762825,10.037798616889697,24.462083753727793,8835.502897861252,624.1372173964974,1131.193584801108,0,Low Risk (No Failure)
73.70531993542889,27701.93708058728,11452.144143951573,0.6413668192253023,58930.84648214588,27964.33699711524,8794.584340551253,59463.24909099303,52996.62249113376,215.14121709162936,10.523154138198837,18.585754929361435,8364.867693419017,984.5252994859882,1272.3427120347178,1,High Risk (Failure)
193.58883788788785,10596.52820762566,16145.587257307197,0.3268787897653196,41288.75859005528,14393.9094626728,7400.450385750661,12600.387256555783,31278.36077681578,232.5698405537068,11.54317666093035,22.273421618900045,7117.106714191013,1666.963205793002,935.9596151936878,1,High Risk (Failure)
198.07949301741954,29834.351587070712,32831.96839349011,0.9895632818291398,47146.43228762978,10620.423514736636,14050.325609194988,33238.5518834433,11138.83090587422,202.92369330821975,9.152183114930459,18.17582478859486,8492.195468079331,1185.1717858865045,1404.7897537922017,0,Low Risk (No Failure)
134.607906070371,8686.012626075877,21724.236469269614,0.3814382981490072,35027.03774916894,14319.568998546496,10836.601734317946,42219.18306241793,27084.438724755695,132.41386514824745,10.469410538296861,23.48451830229476,5635.6317123804965,846.307591492098,617.1159527384661,0,Low Risk (No Failure)
114.52856644048285,21822.411165683043,6536.190475709872,0.9202711976015386,16647.43721289904,14133.340338687132,9672.413409207908,52706.44802982806,60279.953342544555,100.96168630887912,11.612261227362303,21.590017265904002,4397.223101860304,1794.1735698492676,1090.4237448225795,1,High Risk (Failure)
206.30591134799357,18872.431702270194,7425.404049297619,0.31954906287840656,43307.59193518352,13512.302163213357,5183.039541375667,56703.86730470094,47209.24677982924,123.62434097322561,9.070942619359931,19.82543842217973,8341.169015554371,1084.186279408987,896.1260303876895,1,High Risk (Failure)
155.261602771207,15675.29607994326,6608.851711143476,0.4441590723125003,25093.618207123858,12456.59232689746,6655.370608819476,29343.3892824085,49203.90432575802,226.66060792662606,10.439553509201215,18.98926715326445,8178.124575550453,600.5261970604773,1191.9349870571639,1,High Risk (Failure)
95.62817265969359,20360.449693913815,34409.66218183478,0.708975145939339,50162.39563756652,5205.009370168041,1771.9142922578133,44444.560950847605,18522.087553795187,172.6513467565223,9.331455366412236,18.502626539444478,4203.582839194969,994.220382158122,618.0276652611547,0,Low Risk (No Failure)
143.026832845254,9958.613962469215,17107.11177348804,0.75987870403879,46303.02612862114,13578.388837849152,3732.9132911263205,17072.197826475596,14466.213769185895,261.78026011206146,9.672742087837971,24.03045920430468,5840.845717609529,543.6934786873373,663.2472632239396,1,High Risk (Failure)
192.568895664973,16084.646467707475,33647.2372680501,0.16427656590225737,17980.77759397591,17846.24358800541,4092.1748214903732,64277.222816205205,62431.90507151304,268.7924848896395,10.410796482011452,20.921602799805793,5353.483212216821,855.5971340871429,965.6858638793492,0,Low Risk (No Failure)
139.75075182864916,17841.923972614113,25381.804643372783,0.1432959914309344,46303.24854313611,17043.055100332524,2044.5849262651627,27719.52100407134,52410.330270589686,256.56042507772827,10.71722193751035,18.333755756192577,5757.275600173265,782.8397992711143,1260.3340337260827,1,High Risk (Failure)
165.86948614397704,9661.49256423894,8099.014334398396,0.796600456498377,56800.0421994983,15704.475952859017,6443.815983851504,13819.511135058465,59749.89495970594,161.23768436402352,10.109531310475141,21.244083084247436,5703.888559302615,1760.4424021675288,1166.5696248000977,0,Low Risk (No Failure)
206.2061510197215,12454.717845921941,15914.751223931618,0.6706058097213454,22096.844012037807,16941.591056372672,11675.409531505407,18410.926552272627,21701.302879641804,213.3306020010303,11.972972862307277,24.98472290325144,8830.620766719092,1300.5691232554009,636.7012412811082,0,Low Risk (No Failure)
127.15637070817957,4068.3457208389123,17404.914111901155,0.04572661476227269,26275.279045559124,12422.93329193454,10582.315460904905,38876.58697108776,33913.12678988527,243.58151327177683,8.487597938007328,18.3248029564009,6708.2973303543,1726.0180862208645,840.5717419299506,1,High Risk (Failure)
191.05016221786497,28427.518420144068,23041.02880970199,0.6998286910824209,37898.32403624467,18892.27986196597,10732.205146857254,18730.116680922594,69946.59887857205,114.63219910520866,9.475838197495328,23.163071419850958,3891.3121317973178,1158.1488206060671,562.6239691149319,1,High Risk (Failure)
66.70643467460121,27814.882056750244,17064.51428584786,0.8883346267787601,47605.877598857434,23059.981222289192,4834.092074986451,14552.667369039329,24650.51176094304,244.42813006999745,9.580464068904247,23.81164700271771,5513.660243069917,1902.327295145566,1181.3460485044648,0,Low Risk (No Failure)
200.9432256871604,18808.631401295348,21053.2034000181,0.7334414938106582,59669.46362637222,27281.795970952364,2753.16306106527,10475.60672009252,25022.01518594096,248.75151052742498,10.439661484821272,22.16790550242009,3868.9434034521655,1220.2749261068166,1118.2466463834414,0,Low Risk (No Failure)
78.12856075639428,2188.3684452468233,33607.16671505476,0.44892670926889444,46708.79187483239,15245.99670748865,10797.119949364604,34976.85362661928,16470.20018951451,268.4770349267026,8.767958914625854,22.353959914775555,5811.406683274655,1054.5373525554633,1385.2021058741589,0,Low Risk (No Failure)
136.3040170348752,8451.616685745626,19439.311356748796,0.28442032390379157,28733.72254979787,12346.77617773861,3554.9629678000942,16188.403773709666,61700.97594251216,128.8241223679622,10.930910581686783,21.2942949996179,5339.295008347923,1446.8520870814193,1276.2264819775996,1,High Risk (Failure)
169.5569876086207,9996.823228596439,28889.00557902991,0.6628030863757358,34184.38500619416,19442.637525386315,11856.154816173426,18463.189907728236,58838.43726294787,156.16057770951636,11.264414001853702,20.732616967548548,6147.351825037203,1983.0162273884882,1029.7391880082141,1,High Risk (Failure)
99.63695832018519,15803.343809046797,31173.965697756168,0.488155956087309,42407.97761645242,15578.757886622758,5154.469663491272,57412.04944231359,43291.13452515644,286.2760177165933,9.709530218518218,18.996501642931165,5892.7802675625935,1270.8971077331971,772.0425685242449,1,High Risk (Failure)
125.20688496518893,8324.994193857001,25396.186218415245,0.49410041575843944,35122.06305472914,18968.181718143984,8633.218403571445,26734.123043309297,40729.448884699916,297.1011629673102,11.865376430649489,19.709173109894387,9045.935046141389,1920.050476992422,1490.1173272493365,1,High Risk (Failure)
98.72353279694036,9851.221373736915,20768.93084001109,0.0852140869017709,24757.539796184577,13160.252150860648,3358.532473276496,37052.58164666391,60797.626470332354,105.53928980905141,9.253532321184267,18.505402153348044,8644.885186482123,1649.309221380372,1162.766643221193,0,Low Risk (No Failure)
143.10173752062997,13540.677834778588,17452.34387023397,0.5543640408284098,53715.9006376663,16085.205324867913,4303.254876498595,53262.149353016976,31053.822846171006,232.3758556329516,11.879201978383076,19.964315196926854,8219.285444185196,814.3795087122734,1050.6447534677764,1,High Risk (Failure)
88.07866038101719,1276.6296667408033,17660.15752537169,0.23648398592275421,46382.2585839441,22547.947336631667,8583.233688315118,12788.04675773435,61596.65823803077,132.50696652955017,8.180561512856059,23.617421225731967,3755.3010655392723,605.7785732636119,934.9105139713342,0,Low Risk (No Failure)
191.5809937896567,27025.152452267037,15692.535654733627,0.6438472028115468,53410.46267451207,23039.879271212718,13436.805047112284,30480.393232012913,18227.419699552396,125.41011284053161,8.206243944710579,19.49993749894882,6812.315336173049,1397.2462310553312,510.58635519279903,0,Low Risk (No Failure)
178.57930388640943,5100.123072273866,31634.54344894996,0.07125268532136497,24426.0794312356,29824.070007830782,11836.858466698917,27328.44130386267,44454.109653639716,179.30179925552454,11.567146485169994,21.72136211140044,3327.7706953582006,1231.4370317083776,764.133973958233,1,High Risk (Failure)
134.22902028997325,13550.245369537617,6551.626476639603,0.10303713097510048,38727.902581515795,12018.548823566452,10782.156965305303,58830.380562169164,65517.3900886053,180.50821905941802,8.91104123016301,20.38103086614218,3430.329987131298,554.4462579790584,1378.0366443752882,1,High Risk (Failure)
183.08878298261436,17535.42925819433,14223.865191005782,0.7899327210558801,32809.68744751672,16683.23241964583,7765.462805083548,11965.269046999523,58392.183314224305,166.52995562881654,11.08759443354512,20.667309716268498,8617.053912128675,988.9355662647376,797.5215075989661,1,High Risk (Failure)
157.2404292953044,14104.202294916058,17970.432150143948,0.5900124682736959,23397.9671205072,18512.590124946048,10948.220308702863,44400.64261737104,52377.59274276186,172.9775013094245,9.132490327609126,20.37874614816281,8159.758605864257,975.3623365624844,963.8149956106647,0,Low Risk (No Failure)
84.2552119680159,15227.793701047774,16251.2209472063,0.14841012338263715,49212.205953127515,12204.294163685841,2873.88305412413,13601.556966139951,63150.466185460515,166.80688577585516,11.634343908656668,22.717841855443112,6440.873682532121,1261.7341728753058,1496.5508756035688,1,High Risk (Failure)
107.4092992729584,28529.153980923526,13030.00279308328,0.26775166553954166,20978.778679238625,20603.453956952544,6250.673105373437,43356.70939141894,69699.55751828427,102.40696306484548,9.95643591152248,21.623692862774163,6813.962094511262,1166.9123764614444,1442.2803135846202,1,High Risk (Failure)
176.63027201682516,12866.702669783845,9222.300901734598,0.17296952460307513,20807.402392923275,18059.09869604757,14495.132552104558,26018.163516324676,63072.7772122035,199.5067559411994,8.674600769388102,23.24665657973952,8400.405227950781,1540.5766079240977,1097.206141701148,0,Low Risk (No Failure)
80.72238740524867,20489.725577190326,18179.09816983991,0.2340624925720749,43155.29455749414,12173.123548445395,4844.600687418864,66804.35930046666,60955.58123610702,156.98544615129416,11.168364583382436,22.44229795192965,8269.309495147088,1495.3948478629268,1296.0317962239665,1,High Risk (Failure)
178.00019969755974,11484.665445125742,30555.104264567995,0.25804389403671546,41499.5098713137,12586.524615830029,8113.311208399026,23998.093224473963,37634.653764351264,112.39937546318436,11.378487802472677,18.01520589262698,6209.941613905115,1728.3267729013814,582.273292140488,1,High Risk (Failure)
134.6095609824272,18046.066746924793,21725.54794001826,0.8566982231275688,55574.04404647898,7288.85568160955,1425.5131136599732,60138.75626547221,44970.456519645,165.79001415536402,9.830170198922119,23.571390601514093,8049.255345811879,1189.9124712755504,506.2784025464558,0,Low Risk (No Failure)
157.2648342545126,14988.330048899836,9209.705593034781,0.6134262615212319,23787.92179572043,27112.552030662315,12954.47925396702,27599.50746502694,45592.89044414444,208.77154193717195,11.350989696785955,18.93943283008166,9453.858940143675,802.3797968771753,1466.729556096487,1,High Risk (Failure)
107.41212830396802,27165.12306979071,27676.224535351615,0.15113399984889386,47739.059542068484,21501.4543145967,13269.55712842215,40506.07525721644,17808.479830460983,258.92833560357064,11.566082595939168,21.980634984137573,5803.048378732592,1223.2213943746895,1254.80335642126,0,Low Risk (No Failure)
174.11310132521885,26602.258229664294,22486.080835761284,0.712394301952988,27716.587464188957,22896.66520160647,9175.417634855397,66694.1364853103,25309.27679972823,275.17634788594756,11.410877828523658,21.98732191868704,7713.635774524672,1705.2029479372095,1064.2723917205924,1,High Risk (Failure)
152.5588013166928,1001.5319810366072,34087.16155509675,0.5737442425445864,46350.0110355417,21711.631379222443,14951.756859507444,65673.22572841987,37355.20523336009,186.7814486724044,9.146339825472115,21.30385254121877,9579.576615734824,1354.8876842539444,1417.8165018645589,0,Low Risk (No Failure)
80.62075550570387,14601.723251818621,31869.536912057556,0.3965637167970809,31851.010010874903,12886.111652047446,10368.679443306944,37566.24960769474,24317.436971314288,294.184144217072,11.61739786693424,18.88267615735655,3441.7008576166036,511.43996465790127,725.1102153806609,1,High Risk (Failure)
71.04590990581998,28065.01595899293,8697.04004029412,0.20907128530034913,40988.45795605994,10662.591386122396,6042.02961917612,55852.058131105856,21086.357868355277,129.4369473198367,11.178430571548521,20.363924091892102,8107.5221142119135,812.3395359879212,648.8187836475506,0,Low Risk (No Failure)
112.6116188557775,28154.224176924577,13196.105181506975,0.19279043581910582,23331.825930449988,12066.374105686604,4580.186658540704,28124.44527923689,58454.565655426755,244.86286994340483,8.015226577604075,18.249433586126923,4734.847515312587,1205.5897356727519,1189.9042586040282,0,Low Risk (No Failure)
66.51660837103522,28396.51406850197,28591.021578850938,0.8347379547769676,30695.576483940942,16158.14381105504,5357.596920413745,48589.1047227833,39794.00505486146,274.314807186728,9.734329400136,20.967549573561318,6463.27755324741,1764.3256522461006,1264.5330248695975,1,High Risk (Failure)
117.51858419516083,25877.875722007182,14304.416632724062,0.23384836908547768,35890.132478513944,8509.068284652514,13203.446858169938,47287.189409693674,27970.343139967386,297.1781702384666,11.006980516593007,20.01698295619346,3211.0753746283317,1387.753961727107,1283.379002284852,1,High Risk (Failure)
141.78066227795676,20437.365305286417,18534.920110627878,0.39160188092155546,58914.624469149836,7337.826660794146,8378.408291624768,59889.90106589393,21482.412714523365,169.7807879956945,8.726551197181827,22.824411423582426,3617.4438392804714,1306.3121109289427,1380.4074759575838,1,High Risk (Failure)
122.6787920899645,3313.8845853860107,22069.10101283723,0.40786296342566186,31539.281489348206,20416.890073250503,9162.118912238217,63307.93353219465,45580.553684479084,181.97323575886367,11.323420767449932,22.344075498131012,6380.633855575346,857.6721010857657,1440.8574188305897,0,Low Risk (No Failure)
88.6450619906534,13539.494445367609,21397.82790491734,0.36902975638259783,47631.273116812496,9561.641869798288,11320.845519967543,17497.411278807005,18270.438838155602,249.34311484084915,10.26381252685039,19.90272657691195,3109.554565625003,1905.8769658739623,1149.8328470640565,0,Low Risk (No Failure)
196.70161493913267,28130.16766000686,28946.6354476404,0.4133125614011103,18069.280563422646,16208.75267602153,3588.410957188401,69335.20026970142,36327.537118568274,111.33751979073779,11.857967569391757,21.414256309382175,5741.6206465123505,1839.1836552115694,1338.812522043247,1,High Risk (Failure)
142.67174163620285,6617.794472512638,15203.268095086063,0.0816316498513383,49364.188526064936,13179.423563213597,5923.639040116294,59757.0697447015,58904.3495993753,186.6446072780985,8.527581932110571,20.884103128402113,9477.767852988487,1843.047372587502,1444.3261995457408,1,High Risk (Failure)
159.1023950986403,8448.1156624447,7208.54784601045,0.510395622520099,38938.60323506326,29359.995803978636,7797.568398137757,51714.18725469945,31637.408488425535,241.96072862233734,8.942274607210894,24.583791271355196,8459.169061279912,776.5057698751634,708.8196247777419,0,Low Risk (No Failure)
168.13166801665176,17401.167013565224,12713.43989012435,0.7929822357248377,34015.319925870666,28618.922646302297,12084.230967017498,12550.002705309435,29007.550126001257,177.297339320689,11.977474716569532,20.6201510936528,4838.467203237538,908.2196109536324,954.1334106148095,0,Low Risk (No Failure)
150.52504877455942,17979.09221113603,10380.600777936557,0.10844361775126188,27442.067805819544,8857.215371452421,12798.818631956607,22252.925659090462,59175.7688061172,268.8304339150883,8.58747716810144,19.098649379233702,7675.400184553443,1712.4757433585946,566.5353820029119,0,Low Risk (No Failure)
192.17082084040453,26991.444777675788,17089.184003701826,0.3585326833698439,16180.74549520481,25607.672720480175,10810.101942342702,13686.370641166799,20527.303355004435,166.7023757917621,10.511339322250084,20.839773468809092,8267.86116572159,609.3962483854365,810.0832150637973,1,High Risk (Failure)
217.59834498254003,17144.568440032763,5718.841553728094,0.739289628746437,53172.35703002528,15924.28584084854,2006.458096435619,55487.59193197329,58864.61763624326,291.87598134843347,10.74849756218494,20.42950374530887,6687.14445367035,532.7517144932381,1199.9507724779796,1,High Risk (Failure)
212.22876965789317,1707.3388001928054,18647.198086471915,0.24239787625188902,45858.46795487176,23883.49945888685,10013.839465907127,32926.20384280106,34879.52455867128,167.19398151736192,8.246979032698064,18.15035334747718,4491.702893737702,1338.0146265899941,1257.6588681623434,1,High Risk (Failure)
175.835688874575,5884.775982825542,21113.622448602197,0.26799644879536366,48282.4499371497,9117.123491527336,2377.5141015864942,60751.29534150182,29977.712520163543,131.71833858072236,10.858795529610259,18.645224849834417,4433.2829959550045,1901.7498049473459,1099.550954194989,1,High Risk (Failure)
184.7800873372198,9200.19825474286,12025.832768504388,0.5429499379481127,57888.05038217062,24935.673259579566,11824.505695621172,48513.3885534903,17599.168342587705,227.89038462534126,9.043194541049399,19.213039438103124,7685.423550217973,1491.7963123553907,789.9147783531113,1,High Risk (Failure)
93.78015080928598,6907.804405052331,22797.78410526132,0.015107445587704382,33406.220441159174,29048.57417631841,6285.667633211667,53805.31068615901,38656.55009075513,122.31000041518503,10.115356205988228,22.603681837367088,9628.60137951398,1771.8790301511074,554.1164196634999,0,Low Risk (No Failure)
159.58618265055946,14438.33925533474,31841.313662805966,0.3546270944431186,36301.05091694415,6994.398132735581,3974.8165752315967,27195.138538248764,29746.600073118185,210.6334108502158,8.381286354742528,18.69921145270143,8627.408786794582,1648.9676163168997,622.5143524038531,1,High Risk (Failure)
195.6974776025008,7880.37654605698,19982.136841407337,0.7019448245745882,27647.931702603084,6393.005799467831,13060.110488765727,23894.048696735626,54517.163585237875,156.95218025945306,11.785851565394573,24.60795126701448,6712.764345103591,1848.5158430098295,625.4555458508225,0,Low Risk (No Failure)
95.57780875970724,16229.08470131926,13114.073168495266,0.22816733438058445,18556.470407981044,12142.731121558194,3404.004642294296,23228.775722067112,10229.528466803598,214.08291670319028,9.121024350024138,18.852134133744144,9299.195292245782,1677.4113410950913,1068.286938174439,0,Low Risk (No Failure)
181.39445138622733,15104.79092392928,14300.490674655468,0.20808721485011028,51928.001442741916,22369.727559191688,13874.109869026597,62597.60989682522,52126.06512814157,215.22781899011403,11.615776639080158,22.610308801045814,4413.034462039235,1797.9852218866495,1301.8850832568266,0,Low Risk (No Failure)
171.2056366173685,13695.662841688978,25862.214457679172,0.2324690402167634,37194.667961801715,17278.3222455121,5266.244557032408,68095.27688879982,60171.172498912674,298.7181194636038,9.829384406610519,23.73097221799798,8302.136092363162,544.4621032137665,1258.029863184668,1,High Risk (Failure)
196.87369344176116,10711.470413972565,12501.702755304595,0.033133462193210894,49116.23076791794,24513.467315987506,2115.7989263995796,40969.98197099555,36122.01597927142,104.94278750628614,8.892538919521876,20.206885834148046,5693.462114178635,662.6688888423017,1067.4163041769693,1,High Risk (Failure)
69.29471233285597,28976.023886025367,27899.242315403895,0.08539769213508108,27569.895833865325,15360.171391763304,7083.086766621763,43755.51092463692,36914.85833096805,157.88072820305118,11.254482864861275,22.015763097281713,8084.022447259137,883.1990759604873,953.214278944233,1,High Risk (Failure)
124.30195198251681,28730.414035665202,30943.706659996864,0.5759104674173964,50329.19879240964,6763.051344715186,13832.391444613222,44296.197714163914,25424.910431126907,172.616142242019,9.630505486973496,23.72872590046775,8465.014192237566,1695.8291985341389,776.8923538295994,0,Low Risk (No Failure)
208.22121707681387,24796.71674068164,17979.274418121076,0.9412216350952906,54567.088173891054,16126.903549823883,9794.39604333566,27947.15675229746,66655.18410894828,277.383101188718,8.928010335202844,19.50936629430449,8948.375459486608,622.6462659233445,1122.0927047582295,1,High Risk (Failure)
69.11659631957892,20028.236663575823,23032.30397019178,0.11681231681212267,32458.48500227209,9828.181095567996,9931.089921106506,69445.04397037011,32894.121597402096,178.22086790256338,9.671480070066663,20.42099340574141,6948.820890589142,1448.7214491598481,1453.9213691657762,0,Low Risk (No Failure)
154.88709346988546,27414.19258270286,34933.53163460194,0.33149227325488284,56735.757610954206,7776.9241137695135,6503.31056653593,33506.5975344702,25276.961010071813,257.18855907090995,10.418402169827583,23.669637398404973,9951.000658209952,1088.8049793434102,1040.8848315285245,1,High Risk (Failure)
92.39688962643798,2518.0681745080797,27689.95359440477,0.9664348100843196,44379.289183657194,19634.805275916107,3601.4852572671934,48233.14700847506,63041.071587411,172.52655170570648,9.572477572414911,24.607778815662577,7350.632544967282,1870.548115387762,916.1281289743584,1,High Risk (Failure)
71.34915458140375,18574.401126146357,16674.9384954044,0.22160918823915088,33379.65046014254,7014.019985124469,6103.5450916546215,45843.43474244364,26793.64610049401,284.8592193677706,9.89206275114232,21.28523445533299,7219.857651105577,1695.7548165567912,591.2221142656912,1,High Risk (Failure)
142.03016176264137,17348.375941916584,14969.297322198789,0.39293730502780666,36131.13165083216,28914.621518132484,1896.7217959918346,14397.289277166183,35966.81701502862,275.5429035251029,11.537476269594785,23.579919986570488,9694.392477849455,700.1517225927414,836.2517031157429,1,High Risk (Failure)
177.18416784934067,22268.653630712266,15811.343646697087,0.7017547722584984,44235.63770754228,15746.430725437309,10402.606687421288,46518.58052744958,55518.97614122558,238.2804739050713,9.995993506047299,24.056771425655725,3416.2679403532043,1288.5376147213192,698.6838627164749,0,Low Risk (No Failure)
210.99225485123532,29604.147765380698,25887.904259015995,0.2659825393799419,38283.63849676042,9483.992238758241,5178.4175231696545,68525.72569993834,35880.96267197994,297.084498191789,10.954871532822601,24.690678476166493,9329.692517051953,1090.0941382309757,714.1821004440923,1,High Risk (Failure)
101.2706604344249,22791.276208407777,24201.46390790169,0.010567122774442939,37369.420965481615,14662.399771918068,9722.999536761265,54335.870889226855,21209.808113967556,256.2996217170625,8.26939482836298,23.93014052894477,5202.935995305605,601.8470397197393,776.7432956197822,1,High Risk (Failure)
156.1784018789134,6272.711932282824,27888.466355346834,0.5039657798253935,46930.547237912746,13446.428228423749,10616.906707204742,35026.62048793654,40574.39144956248,130.61947892924834,9.494201955780497,23.187672024862863,4419.418551433218,1985.6182631905995,1323.5778604691902,1,High Risk (Failure)
102.1195754428818,18530.180485495326,17238.061131628892,0.7326856913968013,45590.60405721028,7516.55412408614,13581.646268715023,56540.3684243475,44740.94374052606,121.78775232016613,9.54518248789689,20.70295378345044,3444.1287285793733,1910.436244952202,1324.2375163338415,0,Low Risk (No Failure)
199.7883382698142,12702.079780766124,27649.361994474897,0.36261695158546203,34714.530995597204,16513.415545924392,6407.947812534618,47919.85629659402,10807.86437387907,219.02256179453326,11.946830287075052,22.64755951786619,4488.600797180395,1329.429454884994,694.3148295510546,1,High Risk (Failure)
203.5785385265491,5447.579995056623,8630.471502459466,0.6276067213320636,18022.894406963525,10644.306567436672,13706.86241378968,67694.15629298113,55135.19660699232,285.0527878671579,11.794650716343925,20.076305938646843,4668.949464164072,762.2097866507731,1101.5171907220472,0,Low Risk (No Failure)
123.51874595319586,17364.730875425077,24721.791184839898,0.2046916746217904,57928.43549963734,26814.211531296343,3551.18906528904,48593.5063435177,22108.04372826476,153.2589967550163,11.71118628575405,24.605163187896306,3958.4906016807445,663.0869990493732,970.7996024723784,0,Low Risk (No Failure)
103.51195618058097,11168.63805225726,20860.57561036459,0.8938897627221916,43352.0124288609,17705.567542206692,13666.46721444142,55116.02049124274,68886.28432794593,238.29194933918336,10.1341448137422,24.63972044372842,5444.202087343918,1752.0373575831406,1083.713207272644,1,High Risk (Failure)
137.27501953365683,25213.746476511387,8214.700907807703,0.8507306845860373,42171.77485357222,21280.098998896006,10281.089670525915,44086.85086031123,59861.484154337755,293.1879390262083,10.150020821503151,19.191885462681242,3227.812441808357,1523.3302884375894,873.7416905569876,1,High Risk (Failure)
81.23452064688965,12293.605722252523,14538.179891204685,0.19578380686040486,28966.35191478357,12407.8034611761,13086.999814497189,62961.235058946186,55590.86997623778,143.31313411188125,9.000857580285423,20.349569750948294,5619.107931217379,662.5572771191097,733.9175496161644,1,High Risk (Failure)
185.0918181351897,13710.659632961811,27919.91147958629,0.3449620847592322,24502.221148323857,23922.421927722047,9829.137542355957,39932.58474880523,60113.4056862745,145.6248050534673,10.345439853486441,21.520326235383962,4905.283009679409,845.3927984324948,1111.4489488658153,1,High Risk (Failure)
66.52402264876223,6902.511342719996,19944.52160753445,0.581943641505783,35533.48388057501,28915.875336940324,12505.899025546647,47239.13421876322,24328.904620790756,274.6657905819851,9.703515565166605,20.67700981269638,5179.868452576589,649.0196771305395,985.2038825746911,1,High Risk (Failure)
128.44370139773798,2019.6182578646303,20933.282676324663,0.1760670360376576,15878.817613361356,14489.200714248145,3650.981039537598,32964.78552632131,32452.539651717976,189.37159340757572,10.852956934218193,18.14308488882247,5811.001153813817,1487.9288945813398,537.7012845929215,1,High Risk (Failure)
101.96224708797202,28615.542272507388,18443.860983954786,0.8556245661758771,31722.22946853853,29949.565842686843,11195.776277868667,36791.54455973421,33893.899793032106,263.05757541228184,11.168256307328122,23.34080919618718,3868.8851496785937,948.7421001060645,1034.418915431269,1,High Risk (Failure)
219.09284842971437,20836.72098907008,17822.932134806426,0.4533535379141953,49043.162582207675,20402.855895763096,8520.110590217493,68150.93823626437,59395.704665709396,200.59883842571955,8.231524078338897,21.82759665887032,6669.501206501367,881.16531930633,686.526562546538,0,Low Risk (No Failure)
199.77257985708437,13217.725567367575,16686.474934445672,0.8716367705200551,32916.71777704486,12434.94432894309,14737.079142133998,65601.72497847976,35227.31995148347,242.53149748028218,9.204965527908412,21.253649837432256,7097.603951129718,1824.4224842470915,1212.984224720491,1,High Risk (Failure)
77.8548799931596,7211.111329448018,13596.421956614511,0.8518362587619005,59457.856569295414,12564.97600901318,2401.6036251842456,40842.53056931568,58910.33822119853,148.54923781503186,8.07051108636067,18.711098200001324,8661.327766128179,507.85205739077486,768.9647326849694,0,Low Risk (No Failure)
182.3105164920807,13650.218096481316,21848.975998531394,0.20276920936883913,22546.379531053215,26032.57873943269,12221.881924947504,29161.15692704855,20802.30674133171,148.02134250977764,10.790264719599433,21.6445138720498,6452.071473666115,859.1019449173401,1247.4858483953512,0,Low Risk (No Failure)
188.09387185745325,26174.846636144823,6270.048377074763,0.25861877131047617,51308.27705124444,19062.785402619156,1078.7204077990739,38664.99766922371,63112.61160826995,221.24876456857638,10.180573551191655,22.623189691230827,8798.590997348125,1321.5833939107301,963.5343781630347,1,High Risk (Failure)
93.46967446526845,16028.331153441897,19440.674963235568,0.7428166905773317,46858.71784379471,7311.499148068932,14551.263630327901,57630.01394490251,23974.496817961357,268.4901142372494,8.176431413879275,23.447310950107834,4556.631008595787,1444.7083973366055,561.4613010772865,1,High Risk (Failure)
194.216617904651,7359.563192640089,21591.135319688037,0.12488331324064617,46384.14561699999,29194.30404824621,11204.483493816178,67631.8490351554,19791.427563197933,299.00986154528255,9.254084680084699,24.441388922769722,3953.2061224641657,1348.645325086784,1128.0244499820772,0,Low Risk (No Failure)
182.57036424564842,12017.804437898421,23421.308209176907,0.9917863552879298,34492.11987062388,27875.669514809884,13901.904060322826,29396.615348089712,11204.945840649863,296.42228105899596,11.354849923212708,23.875167749096285,6746.303443815836,1995.7633138420829,794.9393682175306,1,High Risk (Failure)
72.18093751844803,3967.6332064878316,9866.887132894908,0.4769054255322751,22923.9491221141,17527.952933277164,11869.50793693083,42918.271164249636,10596.042261812778,180.45567443471123,8.946448085441277,18.653940682742515,4032.071696161807,1442.241878285076,1153.1398393695,1,High Risk (Failure)
138.30799418290246,8342.768303371497,15709.510764203389,0.3799561251474085,22044.780371753506,6576.4631394060925,2538.7391563844394,31538.976281487132,51318.33610936641,118.35072042722929,8.839275707714243,22.322196938172045,5523.625264148691,1323.0236260984643,1001.8109724269486,1,High Risk (Failure)
76.2851956192646,18930.265609397877,22668.30945522046,0.6948870858072801,58499.415209748404,29397.15470049663,10529.969688587325,14723.805906524347,33090.76709046487,149.9091115885032,10.111592323240204,18.976651018481082,6514.006958964861,757.6195211318483,885.8810698667646,1,High Risk (Failure)
172.33719265820682,15390.364905207807,20293.305341105377,0.9146909247082321,57822.18310133467,16983.88919000609,6437.933854438781,50738.96637488736,46992.27828224602,185.74255781273905,11.21806177292196,18.49503055918789,3669.482665819784,1535.1616860387448,978.5240018717324,0,Low Risk (No Failure)
197.3460402948819,3681.0359940749318,20159.961000076408,0.36505065410553084,20290.51817129525,21336.81307398903,12702.051356602335,21253.16123233924,26208.89642259662,299.83142163885475,9.254511718283378,21.679289367651556,3036.3614493519704,1419.9808835941274,1039.0952386967242,1,High Risk (Failure)
187.56725852472857,1815.5236820597888,11418.013484031417,0.9796917464358285,52918.223948818486,27019.125290202574,7457.998067590399,64908.08546310596,44795.84744113268,244.27717582180713,10.128177589156541,20.83297277547412,9129.989504759837,810.7664480676738,918.4463474201782,1,High Risk (Failure)
214.74025844146726,16487.04728293504,22849.050720244108,0.16982034589573458,57940.748849323216,13348.908908611147,6814.399357589098,62874.32702964374,15156.351477048298,181.20570844940357,11.93119663728367,19.88438119112075,9015.5119873435,967.831618812889,989.700750464175,1,High Risk (Failure)
74.77768449782056,7227.590569842365,29229.788047243404,0.09410796873755944,18331.407933266113,14049.224563393644,5556.193810189487,12533.74648419863,16575.21747398365,104.10395580483308,9.132718887276127,19.547187428164126,4880.014886183128,801.8765744235626,570.9528891905159,0,Low Risk (No Failure)
101.87290939774496,2125.1841871377364,24629.18964602168,0.8129477019446214,49408.619742823816,26615.90932402625,1373.208149062384,22780.1315108373,66801.9146407255,226.75157944583324,8.226815068736581,21.165562781219897,9509.744555904894,1213.6771549466148,977.5774486299732,1,High Risk (Failure)
67.70285375653656,13829.418481697614,34315.63217397255,0.6117379058424717,31236.017696662617,15818.15689833599,6164.822822321067,40522.9684370061,39823.99154749948,100.47801811910107,9.841897155180996,19.46467581410356,5781.0490965433055,1039.5228398869508,787.3887761069602,1,High Risk (Failure)
127.7336230645116,6255.323264794901,18127.932312613808,0.45374895393755144,43878.84347091973,16319.16523195189,5610.731020135207,67466.22543350796,68487.64118443648,102.44484868630221,11.668594931586554,18.520902455134284,3893.01866822808,881.0607575579543,783.511194558745,0,Low Risk (No Failure)
61.5878113804537,8443.189006981518,20448.420545433342,0.9060194557764881,50433.38827939059,19701.40168347409,14952.508879968962,48099.92915563464,23846.21358635728,146.44233237845148,10.972245031083592,22.61374839670635,7791.207378260534,1463.0376074748615,1102.390936174537,1,High Risk (Failure)
133.83639433995745,15590.873087701273,26445.679226012275,0.07356102897771621,59844.93486791464,22975.414810129358,10210.845515859077,46773.21499075567,39357.86688947644,158.70644235508445,10.68036092177634,22.256424373918502,7541.9387477429855,540.2095868010541,604.3103737852655,1,High Risk (Failure)
88.34396631158174,16636.620029692116,29949.201205079928,0.9377922867867816,28520.042079751012,29520.185712250135,2926.3461163955963,55002.252252439626,55739.00859861601,212.7318120868917,11.442214383697827,24.411109937009574,7726.617448622138,1529.0228822791655,1248.4154016865514,1,High Risk (Failure)
203.51924629830577,23444.147735886494,30587.730745353492,0.35861105228117074,35409.16980445733,26503.65779502484,5112.8612980155685,46514.34705240054,49915.76416854054,283.83143857101084,11.678746904802704,19.127398113120876,6896.641246215966,1358.6199121300829,1108.7131233382543,0,Low Risk (No Failure)
166.39758455615925,18547.066349694567,18013.53206622118,0.1972058972310008,46165.37961814497,27461.583711963835,9567.428001871742,48913.48086802247,19173.119791858775,206.69232038423743,9.356291972471281,22.654232514191335,6146.958158323203,648.4217914912914,718.1209847224715,1,High Risk (Failure)
219.6399022416321,8023.680868381123,13935.500338583084,0.8576174997682786,44453.15100339528,5693.555669315965,6563.005626998105,24069.493239789947,60530.639769596004,287.38374023076085,10.61125963894074,23.857192786483814,3667.1728974035946,1390.201864738222,526.5994276010375,0,Low Risk (No Failure)
159.2758056083153,22586.67792481573,10480.844381341483,0.7790979397931701,32832.6233207717,25887.753864551487,10595.048578670565,68535.83533587478,67666.26393482601,203.918435244229,10.295584758141686,24.156132023506565,6747.762520276328,802.7268107787575,1003.6786464191011,0,Low Risk (No Failure)
78.61862366167617,5407.425291747485,25643.416287831664,0.7183602189143816,24583.44525006454,17425.023955867156,8497.108574880685,62120.64827261729,32220.123039884384,288.55623530606954,9.703820606787762,23.969710865848224,9678.404972967619,1633.8518250998745,648.0887761814004,1,High Risk (Failure)
124.66245146416527,29099.387518054442,17992.28307760378,0.37798811620996164,58418.90697323849,27458.210898096324,12511.965095331323,47435.43409994746,39563.160084976356,279.95168126435567,10.490721421751685,22.079725059216138,4490.037079192063,546.6765035295134,590.4344870653549,1,High Risk (Failure)
64.33535880055736,13994.479131209218,8006.956345288583,0.07331645212076543,57292.198918991155,18263.42242616894,13640.779694954854,45997.52818331399,57814.16099765542,144.08798946819485,8.150830406950234,22.678453009750484,9854.28181816264,1883.4240906518012,615.5736168629797,1,High Risk (Failure)
218.81308727804213,25164.95484583397,12344.322201827023,0.33383152370207203,33948.831045237894,21338.95855645249,1135.535193915093,65441.76759219665,31862.746599987637,266.55293558591995,10.172024803803442,19.46646808864181,4556.165524825983,1373.4455387316716,1440.537870356501,0,Low Risk (No Failure)
208.44036531123407,27271.43846580478,15865.362726744383,0.017300122740969814,41272.67672260461,13856.307587555975,13664.44876961632,36643.813080654174,19770.981365322114,183.07914126263614,9.182849828053428,20.60455838364128,7444.5855330786835,861.66241688354,900.2731555530104,1,High Risk (Failure)
198.48998130755257,15627.040424664237,27663.614279757734,0.04852595157669304,18958.4601455876,14829.78644659907,8024.970365982922,29084.159507079243,61598.21546251367,214.86549513443256,9.227487491115289,22.166189379322546,7192.115461877928,1283.6219633436172,1097.711137801839,0,Low Risk (No Failure)
86.44551842287319,17322.076879223485,14404.258698023046,0.6135841848558766,43824.92084898216,10343.522887233004,6062.980238639605,58462.37356564301,15362.486673095227,155.72635440974722,11.84758279590167,21.861091939513955,8706.775939613444,974.4686326726603,892.2460967173124,0,Low Risk (No Failure)
160.703782101642,24537.183418900753,12545.391190292024,0.6060334525203784,53035.894672837436,10853.978626408956,11595.078798434135,18615.116207916053,10573.166597018144,223.4009111322514,8.501705520083137,19.05688277422724,3186.3661708752657,1653.867969207774,694.274245856226,1,High Risk (Failure)
138.5753167013064,11532.484587770527,6538.109973894598,0.4396615323705906,57154.566001744606,8695.844864219565,4348.171402062538,56767.12731374958,52715.82773900401,298.2612163117908,10.409934197383514,18.05396458161099,5972.072230870076,1815.0663790862877,671.8413527100473,0,Low Risk (No Failure)
138.05664702821798,17597.14038327222,30173.648093184944,0.8993665289209269,50098.35862192513,24476.786214969397,6678.952306797365,56524.058958951224,51736.29426306912,253.95598894172315,11.830814527914228,21.79246670315058,4809.11308471571,802.5652335437483,980.512901356271,1,High Risk (Failure)
200.02137897938434,11667.56825314123,18140.95349403409,0.33754881310032525,28061.54881961373,14141.236154805649,9809.337258880363,68693.36020158936,33387.575109004625,114.00784970638406,10.927154666635769,24.95631312832729,3769.5570871420064,1049.4676752702085,1401.0551746190345,0,Low Risk (No Failure)
213.9476077559267,8737.041933581095,9851.38334990324,0.828125191856901,59085.06586900796,23999.106457631213,11201.921864423088,61104.38434992931,64923.432127868175,161.1948706404578,9.776272077514136,23.891392694733092,3611.0172686970222,1769.397682726462,703.6288869489274,1,High Risk (Failure)
121.24780230982205,16394.9119943658,34921.433804414395,0.5038971982925826,15074.361966388702,9796.278571796382,9444.624833362,27622.70126705331,12888.543201976529,131.27023525516594,10.338938428965035,21.39343444753487,6259.761181901697,1819.075372909392,676.3945424682852,0,Low Risk (No Failure)
174.36052423103132,13731.84807543299,20934.338976939915,0.9822594078707026,52424.40694245878,10876.83526410213,10074.359538641243,45008.951602570094,68189.83837888748,208.97842870523618,9.13555095901487,23.828102140203406,6617.762345926378,1504.8212645961598,947.5720755906839,0,Low Risk (No Failure)
91.01809086990284,28171.52836335217,21665.560001077873,0.9901984904623572,57055.45086182124,5273.209974193714,8566.725354527156,42595.6521595528,16418.87252423844,280.60194145221544,8.538917669036636,22.199612443588,5300.218834723144,991.2954315642687,1362.7186093505577,0,Low Risk (No Failure)
192.40379103261074,14480.644307417513,27156.784943473853,0.5203922259929623,46422.115437646884,28950.86299224025,14917.915390143198,13022.450285436504,34687.524225565896,199.99898939214316,9.52882004178355,23.152882512294326,4646.425294033148,1380.8149042108607,952.7191176908608,0,Low Risk (No Failure)
97.99732882710144,7086.075641094514,27151.749108081724,0.43400001659547716,28518.90843437845,20804.129120998106,13238.081631129118,62043.908352295155,42035.73819745213,217.767291981627,8.01329155713669,23.53647653349921,5304.6029924095,1601.24645869436,503.06641948311295,0,Low Risk (No Failure)
201.7913248744119,12001.602347921411,31221.696894169367,0.4506234145701252,47908.06737296497,18775.012144036104,2998.2769820843364,26343.45717692826,59935.21664293377,142.23888617091626,9.84310084164741,18.70471805481342,5216.308342384387,802.3224208002915,1197.793297406868,1,High Risk (Failure)
168.31052527949396,20258.14951479519,20137.30903678402,0.044309811238326224,47677.4888864622,11487.192684396323,1091.0849503201782,65131.36653554498,18720.58523532889,260.6535320845122,9.404428945833995,21.17028765998708,6629.74975506232,1179.6730717089047,1441.1036945143946,0,Low Risk (No Failure)
125.79159822120732,4011.3421972169,25352.800010262108,0.3642278811462111,54980.288921957384,14853.271219315662,5911.993008192692,68552.82823289282,56198.89797829282,106.69723015349955,10.24523965419543,24.382333983652245,6048.895763796032,1385.7821730580413,880.2906451812398,0,Low Risk (No Failure)
155.7160470501982,13956.3926063486,6478.759970714133,0.6436413728787262,42436.58244681948,19055.883042861966,7162.530840904999,47161.13483754398,22306.639645142248,177.84071873993406,11.448921601405294,18.892081774556782,9956.445245964704,543.9538295530167,905.2859281006728,1,High Risk (Failure)
214.13765127136605,21983.840312759447,28897.428200454422,0.4608812766929614,24835.55039756349,23894.237643431243,14074.841406108828,23801.100382899505,68950.38862659817,132.67556321454362,9.706827060569646,20.628681921550776,9131.592827495799,726.0728297892338,1177.128772423236,0,Low Risk (No Failure)
138.053490967042,18217.467705591604,27769.593213304477,0.590215235628607,25400.93372815213,17461.94610594662,5853.181199263111,20707.617391215124,34995.134539857,169.22553918376548,8.289803318092174,23.25720963052389,3004.859251989,967.4856158434063,1491.5666515186401,0,Low Risk (No Failure)
119.72949060476047,7112.129883467281,6975.26493525964,0.3257681196433685,44688.499272125715,10786.33780809291,9056.58934718988,68354.5582423629,63327.37529883459,207.60844000951312,10.851427329636127,19.38322254196145,7913.615595130954,1836.62323537709,529.0218595300378,1,High Risk (Failure)
199.73166653772924,6970.732012231382,11500.59931116178,0.8124559504031124,40539.18153909384,10873.419423722884,8361.525354369795,23974.949776058787,34614.91209288058,133.70613078272072,8.533231509968237,23.31239150425023,4024.2051717497066,949.0223708383238,590.6792483067559,1,High Risk (Failure)
89.52336309702036,3954.4841600471395,15729.21648766734,0.4280928766249438,37436.91145786569,25843.72327301708,9182.026111792005,46034.6516794808,11050.628884894479,138.4912830171109,11.94069161106422,22.738682734011725,4805.927273285857,1565.5351002433035,1374.81452257297,1,High Risk (Failure)
214.31626462412987,27773.488662571628,12335.224920332756,0.6830498980295634,50516.83486460782,24545.6928162228,13827.11628841687,43366.46037534658,68445.81812468733,197.73469813465846,8.04597368597337,23.112789057425978,5289.049124529412,953.5457047022434,1375.8845130934276,1,High Risk (Failure)
102.43237882907607,12599.507530513487,5553.69257129068,0.005941755844354413,44321.365602051235,19848.60132017147,7792.999324602409,34081.92329879591,35551.393108595534,256.5790918083957,11.155113699013983,24.029310933364858,4671.643591517322,794.7775225651275,1157.8833163302647,1,High Risk (Failure)
178.76342276036587,19088.84814670775,17156.77348788002,0.27957100537056945,57245.471889588414,6500.565028115211,3952.507489784332,68548.63023604159,19211.398259641344,153.2362942408045,10.94923680619012,20.44305778891499,5337.938436091169,655.6456562198225,730.6337665948994,0,Low Risk (No Failure)
152.5375620986464,19161.099860127957,10084.001266653186,0.6232589756927994,31400.693157283957,19766.131274691463,2049.3468187266503,65775.80900456509,54298.14823613592,210.9670467890582,11.684575996246696,20.63408229560634,8439.869108931929,1560.8453269358508,631.3653280757877,0,Low Risk (No Failure)
106.18088851844092,13991.178035083509,34035.79772244248,0.8523501166838341,27638.730000555555,22363.11241963941,14142.260712607253,47257.756877882755,20125.01225338463,277.1350442197775,10.765896180943553,20.134023122852213,3699.5534730083727,1575.0732385564506,1212.3856414990996,1,High Risk (Failure)
105.84312782833968,13310.292147619519,11779.602969844775,0.6811770960705276,50277.238591309404,18080.818723126067,11792.575099406075,50608.64789716738,55832.94718009228,118.63358837580564,8.501058674809158,21.154746332959384,8432.931450995407,1858.8851780129553,1174.7578297401446,0,Low Risk (No Failure)
155.78535747152586,10860.127195736872,23218.000103044636,0.08330258311179639,44847.628658601825,29152.90806231887,4065.6983137793345,15380.116405846975,20840.267690855308,268.15230756540916,10.94656714644037,19.831928491596667,5024.251121713853,683.7542996624427,783.9373643558689,1,High Risk (Failure)
61.765002308583554,25993.470875550065,34548.1360691259,0.9090725263612945,39843.45133265615,23572.590072059982,13960.065162340286,28852.244647852032,17266.692321598108,234.41254284224624,9.00808789889667,22.84626782150754,7219.262223446597,721.4546519972998,868.6285993525642,1,High Risk (Failure)
118.84575804098446,22730.1452991306,13830.444995461343,0.6824504201904001,30982.47861258188,9187.077149406017,3077.726752541488,67658.45287093443,22331.862566137577,251.1651182153598,10.026333622870755,22.38917801346089,7184.419208787023,1800.6189385098446,1023.6902913519934,1,High Risk (Failure)
97.90783902347576,9276.753418782406,26207.33045296971,0.008118807036994857,23527.273597793373,6262.922238996059,4303.209327618642,12803.498334625736,46125.51835273737,163.1557394484126,11.305724091031479,22.54854988237071,6853.411664474548,652.5716703829219,1028.1032890016618,0,Low Risk (No Failure)
122.9313072616302,6753.892934613319,13358.849992692709,0.5104046887190314,28582.40840435176,11053.019015725933,5078.387476171885,39217.706022264225,56127.90412634138,161.34527527001393,9.65729934393416,18.271830352259336,3887.3505240254776,1744.5950038031501,802.1395985763493,0,Low Risk (No Failure)
174.25390914118844,11909.523594319042,33627.7532454593,0.29352795416794963,20411.329806895956,11891.92494189869,5446.696947514191,33950.919411238865,60971.99435970292,123.01899797929514,10.774694972912455,24.75709983987357,7488.8402292418305,1051.1920984128117,1137.4229723027086,1,High Risk (Failure)
120.88283357918313,29496.919933313507,20098.11344301753,0.047547608881163494,39240.262499173026,18218.40336988134,8891.72886577273,21960.553031812367,17941.185511435764,171.977265270233,10.857660987998798,18.62577599270241,5103.344078643218,1792.3269664147751,655.2319862866341,1,High Risk (Failure)
105.61522699101553,22678.09846564864,7975.835903386358,0.055390730020939194,31954.548309198522,17312.79145834085,4427.361374722473,49717.8411168471,54158.392063124236,213.50130674842018,11.408901241633062,18.466622878497922,3020.915085972728,1479.6066381689777,1282.4448401466484,1,High Risk (Failure)
215.80806613714392,4376.920198456632,11128.026597005595,0.5014970955360637,59531.198654345026,8718.358327059534,8217.988613062003,31859.525401969182,24962.106984561928,253.28489851680743,11.086801055833135,18.736773141276004,7678.702579564528,666.4271530872037,901.2123947289869,0,Low Risk (No Failure)
105.19558821920059,15223.177847073757,31219.940348392498,0.8721104087930271,28274.68261427909,12483.002728480904,14691.136375643415,42407.7281238947,52637.21823784723,286.73183629439893,8.612359251419218,20.680250119970612,5280.364428759486,1268.3464219212183,1497.7736006191767,1,High Risk (Failure)
141.9555073300279,12555.884101167218,34759.91027044553,0.969235997267109,26956.28879526677,7275.9917302434515,5121.049629260253,24377.041457934385,15825.86209354375,120.10887223700131,10.74676651751149,22.236822418823323,8180.091911420834,1376.8850846355272,1447.2944031734087,1,High Risk (Failure)
213.74722350861194,3470.8138492301973,7758.13807762513,0.5661910873974069,28961.089110942474,16621.81109798432,3668.997489246828,21901.816374405076,66511.88142998875,180.7319431772741,11.93099872953708,22.05508695983223,9826.759728226803,1256.0523871634578,523.0007215586314,0,Low Risk (No Failure)
178.06844303980805,26227.272082819305,32218.686843577158,0.35480141928137343,35531.52455138879,13090.929381005979,8392.424268532424,47204.831074776426,66078.23240930942,125.74543032664928,10.932619075992239,22.629213735746998,4042.464504167997,1372.910816320485,1067.27614520502,0,Low Risk (No Failure)
131.47432436136324,8310.026718654974,33695.83247234028,0.6162018585572965,32065.850389293053,8594.761896018324,9141.13617409371,68469.24061005106,19082.683363627697,122.1997834395253,11.242372671124116,19.009071699894534,6221.747259208454,1913.6678460455184,982.0603066042897,0,Low Risk (No Failure)
111.38594442175255,7230.783586324945,30060.870625366773,0.870327593704692,58594.471780568696,10839.7564563591,13447.626010435546,37328.64265939691,52972.031791123816,187.6179426510294,9.652439787831472,24.769310330166977,3022.117477866227,1604.574372962143,1385.2134030553552,0,Low Risk (No Failure)
181.84170107479557,3568.7718494626783,7487.814575291781,0.9791121697448023,33377.39970079653,5638.857116234487,11987.72685627672,34406.01375949841,46711.48001329672,199.72441750966436,10.87773957987535,20.779170407339073,7533.034931217822,1907.5857230356735,785.9510607711102,1,High Risk (Failure)
198.09654814009497,3171.979418057528,22653.006692492745,0.6699263421613231,46343.88571219001,29037.920165670483,12257.974313805043,49087.59148419508,30016.7859258438,250.4431460649874,11.19254616712119,23.425536601014738,6694.6531272545835,696.2655964077646,1182.6191400026864,1,High Risk (Failure)
141.81478381775005,14677.164590662589,32666.926095161896,0.37517639831310245,50409.56390194333,16752.994151661722,6714.769649280048,14212.048873477102,50687.58406204878,236.5199175205116,11.850993880785078,23.330187318424308,5515.6702424198065,1531.5056008060365,1475.6713027758328,1,High Risk (Failure)
147.11951345661842,10778.85901989963,15154.415311039329,0.12989282629875543,57258.11364454808,26435.104236589777,12544.090866261891,38277.45106205143,22383.987975978976,186.29406353311202,10.54335547579402,22.349519311169505,3081.108220734541,1987.2668128235025,1022.7056270551659,1,High Risk (Failure)
65.92122155447882,19070.997758686935,13187.51480973114,0.45982243090917896,28906.206567919413,20302.735235158427,5362.067741612019,69612.70886345454,51803.6976661342,223.4248314509352,9.450590466103574,24.59827422408024,6802.297109612338,1809.4661763497227,524.3684408842236,1,High Risk (Failure)
206.77017207395886,15593.392030900399,32801.225130172716,0.572670583191121,52060.842480808824,28800.606929239326,12042.917642638855,12045.781417099708,10418.556117103608,152.93636844133664,11.961844322396097,22.49834490365673,3542.9242699522797,1997.6317453838915,891.6340198383159,1,High Risk (Failure)
85.8187773421413,28026.38004997679,27511.667812721047,0.8028663723975461,43609.03504653836,28143.546119418996,11983.290643077224,58414.51718340244,46172.13616400311,227.95369041379504,10.632909582125402,20.00830467184847,6567.325536690314,1854.0474276113812,1064.8420160852706,0,Low Risk (No Failure)
110.68186833080426,2942.7417374795805,30426.94388835484,0.7530576099149094,31888.852891282146,19009.406647051877,2586.7765855407965,10297.395511552735,18763.18978036144,241.62316892801897,10.000361690468445,21.68804644500146,5150.110607747945,1805.322318205522,768.2026116723623,1,High Risk (Failure)
130.23542731290178,10738.674574604502,34292.39667152168,0.9933898787390681,29559.63112334929,25509.833824974703,9724.991494813206,20790.564980874202,49692.5635549931,189.2491046139442,8.783844331105158,24.246412447008055,5998.885909842529,901.2969570441027,718.929466084955,1,High Risk (Failure)
192.83517833071866,15278.644412336218,30033.626446750888,0.8544229603276182,22917.373461521795,18285.92231715245,6762.7469815177665,68872.44512311369,26222.231527029202,176.1630713496136,10.867794327434043,20.395902668633756,6861.857601915034,592.1763873991026,549.1959973023846,1,High Risk (Failure)
107.90133979285572,23833.116603881506,14082.661118538595,0.33100433598318146,56269.44458623532,23963.079781517703,4445.529319906394,20856.697254249695,17938.226959113694,154.14301926532593,9.633641673646258,22.108409595870224,8930.351277929083,1421.2570810259747,1016.1015527473744,0,Low Risk (No Failure)
107.41721816212615,23144.843669888043,31840.028729420406,0.512078453937679,28861.14083108718,15627.007928546547,3546.1720539033286,65660.06255491456,31709.01636616114,159.33410885734918,9.005830562908688,24.38164776565915,5869.513339973582,1169.9950878315499,1427.7462035788062,0,Low Risk (No Failure)
152.24263608228057,9157.252343037988,5608.399213022599,0.877598373161419,43843.39781987993,9279.643085092943,4607.86764953222,24699.652810046355,54900.228953561134,112.67347929150287,10.333810758132644,22.444980338159645,7852.565547455121,1389.36640291112,1006.6151248109416,1,High Risk (Failure)
170.77668898470625,10801.129397973884,10615.358269654707,0.5063967046524591,53098.44239818805,14352.62227805205,14218.850606103242,19665.918858785313,61596.93391110327,199.0380449433638,8.374721770744914,21.704413644712098,4437.0582174884,1032.9676361971087,1355.357759645064,0,Low Risk (No Failure)
133.32810264458504,26469.32156423805,13332.921484317652,0.5727532592481626,51067.876773006414,20055.00308331958,10528.909494254258,13150.549964743639,62273.6645596584,256.449286062181,8.50723192822547,20.201915864490395,4865.599018031744,1294.5509381344295,1119.406493673085,1,High Risk (Failure)
133.7437341130531,8613.956670580006,14906.456754800824,0.003362378322936621,40737.79957286391,25568.310224786735,6139.897816251985,49639.38016295473,53638.39255076468,273.1462373765613,9.537258713998696,24.800189723663458,3396.395861255443,1933.8376671765247,530.8943210965061,0,Low Risk (No Failure)
65.38822461991424,8480.245696820117,18378.95811213217,0.37835360326191203,56422.85052689621,20215.654982467164,9103.296574864054,25645.64678608068,29198.34895085996,295.9517788032021,10.53493620347518,24.867806607946136,9120.566797392756,1402.0428885755023,1443.4772420611139,0,Low Risk (No Failure)
138.8731154649376,15561.81758666644,7619.821176754073,0.8933429528041915,31532.714665328942,23258.210543151778,11968.938273738891,15178.293007666613,47753.61272393845,107.96197752464785,11.674645815623872,24.192529940560572,3774.1264539291606,577.6710282626451,917.0280672000663,0,Low Risk (No Failure)
152.91185352868558,19798.06614600812,29338.665618381194,0.5063662535617891,31731.57928187991,9428.014892477622,11351.292126267597,29106.46107757952,14633.214417488254,104.94363773847373,8.224009788573516,20.588067225368825,6152.584534053574,1213.9362171261726,684.7536367788451,0,Low Risk (No Failure)
83.8073551048185,15393.360367246987,6943.165985756053,0.14868439235669673,16657.611769648647,20649.76164402589,14140.698883401401,54743.30771579971,37190.55599747531,206.5701630295847,9.594428525739554,22.706591618586298,4090.0301751068614,1272.623940902798,1338.9493069830123,1,High Risk (Failure)
84.60539288211459,22267.483927230714,27824.226242932313,0.8797952074934596,44087.687317863514,8125.6374729973395,14713.27665037192,25667.408108051393,39684.12444413021,154.48257730977826,9.15094335075407,21.42947950973855,8573.732736981041,1125.1228773668372,969.7888151068483,0,Low Risk (No Failure)
135.0571537676126,13307.281524102802,12301.091402191281,0.3317775090046472,53582.557631423166,24432.469642831446,2475.528152791754,44638.841587389994,57417.00015122217,140.7016624604196,11.696101927171672,23.2557479561476,3431.4600832118385,1861.2915737768456,902.1242042871625,0,Low Risk (No Failure)
149.3446799577288,7923.8013614946985,33574.739013029735,0.23792416224498347,58593.90490992614,22061.239658769784,12429.682985043892,53151.360856565356,64426.02168698955,258.39656644498007,10.544470627758505,19.34670915809947,4130.89222487186,888.4077405698015,1344.7780598969543,1,High Risk (Failure)
125.88248665352137,8161.996961544813,18112.342482724252,0.9329450353241441,56420.09807531036,15423.960599119355,9239.557908055212,39802.20894147131,16687.973560730523,212.02642834160696,8.773307934604954,19.837944197309653,8329.871851936943,969.6533934194861,536.5512884571501,1,High Risk (Failure)
60.31874163505124,10087.663139261067,24952.323199952843,0.05215723085332924,36921.5413251364,17982.766034921806,1601.4874993069016,27382.95515105905,17147.586441709765,262.29878749572134,8.077094469896842,18.92227400713795,4510.270298063195,1611.3425234219028,956.5700680262084,0,Low Risk (No Failure)
154.43690669905394,15470.070382402999,19408.007769968826,0.571682326099271,16500.46640365313,25799.44121872093,13340.599458508173,43051.77995849855,35603.43547608184,242.7558338339014,9.994980090045743,20.45970180247881,5406.004261329048,1110.2753287825906,1354.658024325841,1,High Risk (Failure)
107.57584117960812,25745.25915844886,6260.173022564357,0.6963758498705658,47092.594335012735,19805.004500212854,5983.128173639295,29261.144765955534,66640.44423419333,166.10035497547324,9.757395211384882,24.9429806504342,5557.699473916846,1545.8934296412224,835.3907277090499,1,High Risk (Failure)
150.65684142487407,7688.520566213654,22063.07307568632,0.7794883464715338,30634.726346181,10683.080627237017,10419.041714800682,39614.57206343171,30085.790409074925,210.04133616689518,10.271882763471632,22.398275803622994,6582.316920963,1812.481308159375,1163.3046176613461,0,Low Risk (No Failure)
161.18261189254198,6214.136591357186,14252.6326648604,0.8101266350119591,55526.006875342406,15578.588033661945,2230.062650585567,44366.09966328736,41134.33251768773,203.1779565320744,8.50988215658584,20.400557341046568,7799.132329511781,1548.1439412630418,636.8847170307821,0,Low Risk (No Failure)
195.09713323833856,5632.734346784382,8354.011137018115,0.9221203897976371,32641.217523553965,16241.455611068559,14271.807068326736,33487.48743769208,17323.476868461166,136.169621344567,10.437208304208522,23.56503107312964,6874.204143611136,925.0034020726594,1086.9142228630496,1,High Risk (Failure)
201.7874070489589,19487.465285090733,30523.41147892046,0.44466747083871627,28184.08742269947,29461.328705358155,5683.124960699665,41191.865727197044,64917.68802606422,254.0447957483329,9.570350223213794,22.83093742861032,7028.206854922817,1242.8926024734624,1027.2466624530473,0,Low Risk (No Failure)
135.88080335631258,20056.446332776926,5643.195998693398,0.658357092185296,25792.87868164003,16859.932973494833,7376.286740445445,50476.75758951255,45196.26449850887,101.38485941291049,11.893934532963506,23.62154329753024,6355.236352714215,1231.8849818415033,805.2795165360967,0,Low Risk (No Failure)
71.0412148180506,4035.1583833289915,8418.14549383956,0.18927350016787547,59857.56428825212,11829.09226047638,10338.208591627807,15481.636666897391,17576.442915994972,215.13299407683883,11.085062494458388,22.392591326028143,3220.058465264536,1893.108093890332,889.6147231533714,1,High Risk (Failure)
62.08030776171776,28615.656421467796,8835.614537260866,0.041066373746611595,24991.615786670714,5973.691472486951,2741.2128129842295,23894.06273598984,64825.63145392484,280.71218851370054,10.657257912754934,23.747234290071127,5265.519821845115,872.7385283759866,783.5347212772979,1,High Risk (Failure)
215.95049536776824,1154.4015265608634,34123.729717070884,0.8959989516809134,36383.51220189647,16599.930609173876,10972.524952968091,59809.98757959068,37178.38605972317,142.26249180568743,10.291017853822456,20.51898644823833,5497.971367185776,1499.9708664862646,670.9832419550952,0,Low Risk (No Failure)
87.73977524716076,25674.729962340767,32266.623211594037,0.6163563235990249,18497.038906000074,18392.27926607339,5351.875792980242,36766.36558743057,43616.85094400209,197.9542514705858,10.600413961270444,24.295839633834344,4343.309256873861,1194.1066332922906,1422.7697328273375,1,High Risk (Failure)
84.71875264078813,14025.297879234164,23385.643218900914,0.49020145855626684,45154.805807501994,15686.70363799694,8670.566423786377,55548.26480815544,37445.67879013341,173.16912082965706,9.998311513711164,18.25438297883401,5204.04362783772,1596.0494742898254,1068.8887674146983,0,Low Risk (No Failure)
179.83410413766376,11134.749466446141,26469.17708200878,0.9964888661768204,32132.439655596383,22234.676239064225,7867.606320002915,45675.298728728325,10111.803120241811,214.4321740451502,9.845012099660078,19.394366636094833,3796.433772858568,1243.2297679946878,993.3508718829976,0,Low Risk (No Failure)
60.03632611492088,29019.162720201566,30575.319088676155,0.7003935796352977,16852.978453335712,25177.07299506551,10668.556913804598,68008.98555038705,14570.6661133926,238.41820780262944,9.320868884177699,18.933408976214565,3679.5540059382347,1854.5039632206538,724.1172842546595,0,Low Risk (No Failure)
166.85886507213013,18094.653289704158,13751.716615410827,0.330851804872645,48186.44123545449,29825.61100424019,5694.369977634693,49366.938043591515,32158.431219899165,203.68674916507948,9.791271799662656,21.245018523734036,5836.700454249161,556.7364829475957,1062.220531729798,0,Low Risk (No Failure)
204.38608532577655,8634.139070085786,29426.32695148604,0.7844614668933791,29833.74709474756,7466.871416527774,8060.715780364778,40549.442892474115,21895.411403854458,169.1111366907152,10.999856474146096,24.366575338815988,9389.337413537192,1551.0015178178037,1066.001458541183,0,Low Risk (No Failure)
84.23128350965717,24241.087516350188,5134.450799765865,0.5805670235907876,36481.268713231286,5244.697217655132,10075.455515645152,55780.358381574006,36465.218347363974,127.3512487484613,10.48601471842898,20.31103264892291,4828.58872776321,1282.1807628242182,740.0201175665438,0,Low Risk (No Failure)
214.56760082058835,10472.035266692254,26657.28721976912,0.016305901786504817,48568.41813652168,6186.186871501255,8243.813639472464,31676.314905310337,29962.14622667578,173.7256563769367,11.454316944917249,20.66041869147447,9060.754062092372,1452.604777646274,1305.6849411136868,1,High Risk (Failure)
184.8840824390179,6330.573794972634,31093.057040417778,0.7468481212961181,34098.86216254387,20618.38005307407,2213.472025234747,32891.741064291076,29632.948792402127,105.60969232385133,11.261632400130956,23.06716204670385,8032.128062755366,1296.5294438981555,1442.6338313999593,1,High Risk (Failure)
172.4214036936826,12200.855463673599,15897.385356865318,0.5513375426990761,51593.31015898181,24464.931987684435,9569.954883885039,17016.156295039716,57703.52440772231,175.16623928755615,10.557848341445668,22.59773753170228,3183.103819204007,1616.8102576374524,1229.488669353343,1,High Risk (Failure)
140.43526241479668,29757.105945875617,20799.267905755925,0.6667560613073773,58057.171698717626,13722.730673896825,4177.8590528686545,43549.08909635532,25974.124451451054,281.84540769578996,10.92242279622796,20.176987525609146,5261.927567896741,964.3969631182147,1344.2051697664838,1,High Risk (Failure)
86.06950833302875,16608.38295418578,29633.31583224548,0.918191773229734,42081.44139856413,25695.35610860313,10472.28785253786,57123.47050103063,54096.244908960165,276.0788053075386,11.888219865883837,21.320758123248147,8939.754608283023,961.1195153617412,1142.6208765553483,1,High Risk (Failure)
62.32714650686111,9094.783652453822,11931.084138411785,0.213712974852579,50728.54767196362,12982.921260418394,12299.301421744076,68576.60295829762,61186.55310354555,121.80159724014197,9.676316001688189,18.453042442277532,8453.422229965847,801.4086949224902,647.7239628053414,1,High Risk (Failure)
197.6223509359096,28046.79491573188,26793.2407432225,0.08478062372975437,47743.228075695406,23127.327776739123,13547.186892394793,22184.68289196875,16965.401463729246,280.8018426254354,10.533745776082473,18.627256918344507,8931.42245871439,1278.6535779541423,1361.665985241535,1,High Risk (Failure)
147.09518202149138,2865.257472613922,13314.818415325843,0.6427460346336129,47627.58751225323,27271.28468397957,13610.552855630487,48828.18293274779,16141.061819542636,202.05002643119738,9.618818744474952,24.447098775348913,3357.029038712146,1148.9847013085164,731.9854257109171,0,Low Risk (No Failure)
166.86719980858032,14977.852614253145,32694.31663150573,0.5738627739626502,18668.612891786383,16956.801620649312,13058.899875380801,31530.02571006791,58133.43592042864,255.40919503681044,10.391398722730692,24.84776549228607,6694.9787258413035,1405.7646812492542,1102.1508030174036,1,High Risk (Failure)
72.96739454522367,16650.19187819142,14719.283196846169,0.9075757039632664,34816.37690304591,25404.776568982667,3989.0444170296605,28382.033446071186,40331.8061148938,297.3808011503391,9.74670121695837,20.686310346456395,9451.944313711663,1799.8723740742194,1124.2379927925454,1,High Risk (Failure)
201.3543620777697,29869.024711263377,34686.944247134204,0.4008124443157497,31417.84775572231,13816.120163357555,1299.7735384675625,58839.13520063934,17531.2349216876,278.8501627563475,10.564656519931466,23.67520619236155,9877.286703598895,1391.6557823078413,1284.9219742826067,1,High Risk (Failure)
70.03033945949853,7125.039499050598,31712.666113374955,0.444385026638056,24204.478089522076,19247.42597925755,14679.443965427685,63087.77218265036,32576.690594466672,207.65134423309766,8.830803747567291,20.325399101198883,4539.65325706536,657.4071014640591,1048.4823356832737,1,High Risk (Failure)
97.37724016798559,9847.890917766272,32347.906596808225,0.57189896766037,26386.4194589463,29435.51186517174,6615.626879167093,19339.120651458434,29009.132242374795,126.12400190952873,9.087340798887816,18.0071899349872,4117.92386114189,752.1819358771281,807.4905429885293,1,High Risk (Failure)
82.80904880529849,16509.228330655875,23380.05589218438,0.29179464672372524,58932.15284585048,29927.88679280254,11799.726165804534,17816.95471885597,54775.65206786633,133.47255849663196,11.556398763621718,18.900972854310805,6366.83350461969,1287.6677500544308,717.0257809180853,0,Low Risk (No Failure)
174.8996921962391,23702.609921613068,22947.132795556896,0.44031297575190564,52353.28941925098,19845.62747432907,8487.996175304577,31852.54877523641,10875.209455529657,198.82621032234005,11.433429120440834,24.212522067586974,4995.555747536011,870.9327244486087,1355.0655605465822,1,High Risk (Failure)
205.3225417546646,9981.059622050485,31660.79644354395,0.7047842934477269,18505.219451782068,18361.5373685452,5106.52867011347,54160.73764966836,25393.811173697235,183.0630017439867,8.088924454267097,18.34859610192489,8388.986914831115,1219.480943447195,1306.5084637882626,1,High Risk (Failure)
177.03943845445798,19161.518965210373,23239.135027944874,0.698902571894143,22780.986134573497,21788.139426455527,1378.2578525527995,44246.45298160236,13024.332654161983,241.2751851595249,11.551969237417822,21.541709850109754,8360.98283087913,1341.853668301889,791.5003091677629,1,High Risk (Failure)
186.1515749205278,15556.131842644958,20307.879386619476,0.0008536974374032669,56504.53776654011,16283.280331487125,6039.496648168459,24345.031791778834,48574.126489255126,275.01785349000136,8.707235032930086,23.677376743074984,6277.707885750291,1814.4555857254006,777.6750351729908,1,High Risk (Failure)
159.41289986491316,19496.843198522896,15718.127659881355,0.3776290801401446,44474.13123174997,17337.903408048176,7913.550569152335,60765.28646404613,63574.278647331914,120.82869384702181,9.382482429551075,22.939760543405704,9313.067395095979,1081.8469182970512,961.2915959244017,0,Low Risk (No Failure)
197.28372336115666,1107.8701637237166,24471.33401804642,0.8831529863718319,44840.793220988424,27883.28958921292,2105.1638989746625,59244.941464677344,28796.75054250755,285.16572426227515,9.407022392872786,22.019168484646094,6404.842904571121,1248.7093304513437,1156.9875165101887,0,Low Risk (No Failure)
98.58643428924191,12574.169687165355,19391.004876006373,0.32462472397844444,45459.84825404598,18283.940489872122,4080.373760964055,37739.20514631168,43533.57407012865,270.6750742975751,11.030003458516216,24.048235632733885,9584.0169481618,1626.3672901574294,1335.1267251406894,0,Low Risk (No Failure)
175.59233844184087,1213.2382920783825,22418.592814470612,0.45781365008462493,15643.83704074056,17518.61520506322,1724.7433331889117,36241.04229779367,43330.17709190879,280.8106711532233,11.425311979918758,21.55667732949952,8264.68251290742,783.1850974304983,1128.2483184109165,1,High Risk (Failure)
136.78009924862542,25556.765054222615,10011.253440144577,0.4345026937193044,53080.44396561903,29474.144161298485,4241.84254014973,42620.040493499364,64986.28859736548,212.37421325008188,11.966802387105572,21.63119759198161,4249.525419285927,1008.043154185596,1011.4131050087121,1,High Risk (Failure)
77.57809819852527,2592.2418364124555,17595.1634706523,0.603800768012189,49696.99340725417,8542.702738358661,9240.7379589824,53915.58145041962,36177.03347008977,116.41760314611378,10.503932027030125,23.343026482945536,8075.964461017916,1926.7480230948006,1001.7948658774806,0,Low Risk (No Failure)
150.8712368884207,16860.549900000602,32937.998822040136,0.7920192079401351,45832.77106356963,27785.182078454807,7122.61907027505,47363.514803518636,22829.462672169648,180.89081386009553,11.977507598871142,21.518467896933487,9441.725456995759,1627.9610502957999,1482.6347930886227,1,High Risk (Failure)
103.12189796676363,23906.074010030625,30379.438773380396,0.3200048857613481,15646.659266703704,16941.259434957352,11110.50537514392,27749.304359558526,42395.2667632923,142.10911866631136,8.67954565863761,19.297187503104944,3860.0955345352936,1429.883610485967,1288.2241430327579,0,Low Risk (No Failure)
172.99938600884195,20259.646439217162,28559.950734163518,0.9673859876636932,36985.33730244207,23222.309403743733,3588.4487382390394,65667.4222878356,25764.9746928964,214.18714512763268,9.35261350202628,20.63331456027026,6882.7176862371925,1989.6533927354608,983.1013558748823,0,Low Risk (No Failure)
88.33770870512782,11679.25311445886,13237.169466530648,0.01734592685371794,28284.40503952631,14757.422059430257,1930.1202750844207,60161.74844366191,61270.53347024236,299.2655016038052,8.193619329293027,21.21538777426253,3933.96557639645,747.8866704852214,967.8493876066027,1,High Risk (Failure)
172.8737328453578,3991.2560654724707,5056.182317575058,0.43256449926843143,38940.32739600629,12106.717324863803,3921.3655609418715,16141.973257177386,59398.15260665146,229.03886722112534,9.733774157521303,18.338780933068815,8205.42935910459,921.4195110931585,752.9150211968289,0,Low Risk (No Failure)
109.00057932585787,14329.349876337346,26304.3511278951,0.5781406737621203,52735.21635291079,19599.366307206674,8946.67749725177,69546.66697042983,68443.4147722091,257.89040019867406,8.162095760229226,21.180450618856852,8179.094694931674,1647.653629169025,638.654045692693,1,High Risk (Failure)
125.17848387405317,6481.501199648419,10103.20646036228,0.6824061619553177,24726.922242287088,23845.121551505494,14447.932299451768,21503.820204526448,44026.93505453599,160.0378564042894,9.070962783550875,22.68557688243463,8151.509935507848,1698.0731791757335,1040.9642684142518,0,Low Risk (No Failure)
190.20720315311178,15268.0501535304,14540.291144428944,0.9386003157947275,36869.18030538462,11854.729198731191,14403.816811254825,26177.77767776831,36891.755066046026,241.00774350889878,11.5495613000934,23.222483182241888,4261.022850287386,1437.0035980982193,1491.1728954846164,1,High Risk (Failure)
72.111956369566,25571.605620529324,33706.65327898899,0.5519741952717797,41123.91770059815,28940.237078208855,13204.610579958122,48475.94519337317,35625.989904011745,137.57079763064874,8.734518910705294,22.711093131572248,7815.440628678856,1817.7522961147329,781.8444986563511,0,Low Risk (No Failure)
219.8228179253265,17916.65438966701,15962.183927046704,0.9860985134801991,38926.90484614736,12359.508971948511,5857.99551564076,13767.999539373453,65439.758837670626,242.27211815513195,8.384565026043198,20.117518250829605,7774.590230028846,1909.8196264368687,641.2135628914241,0,Low Risk (No Failure)
189.07096315115828,25747.04843065299,18216.099443701347,0.16656625008440606,22616.913782193857,15417.482051085972,13393.440402147873,34894.30425200191,59537.17277553543,277.02409906590157,10.16720802112976,18.575825060719893,6168.505469273089,1791.6759260227618,1315.6050594068804,1,High Risk (Failure)
60.85015610693535,22655.555926146633,19388.958685985803,0.9989429619805178,44494.237549639685,17927.9326158788,2322.900156654935,41956.93698361561,17045.72007240851,198.60553449741562,8.673711883419953,22.869565510189833,6405.423017194102,1011.6006087762084,563.3909733870092,0,Low Risk (No Failure)
107.98705784111755,13277.382793172794,13138.057594495302,0.09106635598747259,20283.182806361998,29932.98817904365,4729.857193114876,61732.51430577639,31857.54144492231,252.99167897977637,8.854111725621031,24.5807622401432,4777.3654804297375,733.5759697078986,974.2965322872205,1,High Risk (Failure)
202.5053528738948,28234.152250996976,31309.664929219565,0.41349129149368014,51542.03573482016,26400.07914572121,11248.400199071893,64820.67364164782,38678.68878124324,261.20588127236476,10.89566762680314,18.539220844059578,7271.08912744685,1892.3135322358896,1078.7228149892617,0,Low Risk (No Failure)
175.63311323171655,2635.0737617437157,23122.163017971907,0.47843683804087656,49754.492035186464,15286.06916701027,6862.163009386494,50662.09098664847,26376.92861059218,229.5342768866976,8.190292070545418,24.74563062222507,8499.427025046447,1180.8891103571314,754.3125395615416,1,High Risk (Failure)
110.71145404657909,21890.823169233885,21005.257584035404,0.8098815857057108,19820.063189180564,19690.64196119405,5866.772529765701,38103.555470262945,56115.16029835624,165.24842049982738,9.431385702362933,21.066775742062198,3275.3891983765893,906.5080084820868,1228.8384105162095,1,High Risk (Failure)
72.42389354745681,23606.418772894056,23167.10821681791,0.7925911401965442,57318.75566846367,13650.426855765236,10741.207861618775,27983.851032182196,48559.48120583823,165.87501505949126,10.259477503571077,20.568435257385,8246.962444586145,1283.4332991583046,1032.021242785495,1,High Risk (Failure)
92.67873701894862,21708.523657865506,15637.034633484525,0.4935774386721822,36489.7794928727,19099.76958604033,9722.693001120178,25989.933802356318,48562.921286324156,269.515606243471,8.954554998221122,19.9183520254186,9052.90130921506,1441.15475998396,636.3857436257749,0,Low Risk (No Failure)
71.38532562774925,26746.711569738753,19656.83481754525,0.6548480623891278,54056.530886330125,24654.964420875705,3993.572594774871,24279.428825441268,29881.666434815535,263.420820065754,10.747745213538629,18.4112159538048,5773.77629310436,962.6769209807144,867.9281702491796,1,High Risk (Failure)
129.78024466165067,3442.177324135852,7301.821157846177,0.408193081817418,42659.098461730675,27276.520931313655,1833.9320552602505,35941.275422024555,50321.64374110876,161.5357131480063,11.973023026983222,22.70205351691289,4042.9732033950604,1785.7344732384324,1051.623705320333,1,High Risk (Failure)
64.2418096866595,5905.694921430186,28585.480075946394,0.5976870299435008,35717.13939416899,7511.655287712516,6667.384227809027,37330.5129419155,66559.35596622239,104.71579011131938,9.30925860467814,19.03286091425254,4048.3420544902765,1653.3664823839772,879.1353785953557,1,High Risk (Failure)
64.12990511191792,20193.94905423516,18927.99260857819,0.6832083095475865,38278.34231505329,6948.178322028005,5682.367413010814,12548.405496834515,27640.07189262533,277.42185500209644,10.414676750132617,19.38693836481022,9492.006565900585,1096.318515228494,1086.02905016889,1,High Risk (Failure)
186.81517011346156,9220.373328658296,31783.8006926198,0.975576634435559,35413.85541496688,27477.434903543566,13402.229242376168,58347.909034443954,21137.63159924236,255.3828963900994,10.88529757258204,22.374148152239524,3704.928822270501,1516.956059009032,1094.0504826068477,0,Low Risk (No Failure)
113.63155866334415,15405.55941217355,17892.36143227,0.1922917232310798,24433.34495781058,18724.566225621733,4184.168250404087,61146.860071419615,36818.58500913521,270.22826384818063,9.405169104468875,20.795452571547223,8486.31664413382,1610.1366556555174,946.3619902006412,1,High Risk (Failure)
151.7701248042736,10428.854923607669,22399.499613562515,0.7593235685784019,24672.860257061435,24426.774783071876,11750.135237404591,43654.11528615101,69500.16479400382,179.86457521163115,11.817924442192824,21.2697823693884,9853.702141439726,1194.4897522862195,562.9153650848233,0,Low Risk (No Failure)
167.02024496650967,14637.223474533876,22000.023612504938,0.8855990948498353,57043.737088641305,8685.910908063306,1449.2760241128028,17117.09646279102,22777.935285494925,203.20047116780742,11.92111495620533,23.336497546950227,7995.439486452608,690.194125825242,1124.07497146158,0,Low Risk (No Failure)
111.43931219966112,5294.923160186696,8291.714037413603,0.5812827319610596,39403.05625551151,10576.34886765476,11754.25994407575,40015.372562438504,50070.48266879295,252.28459159806718,11.054211766873147,21.305792586321598,9571.560045954222,1382.3645466021408,790.0004138028887,1,High Risk (Failure)
108.7382030677393,18898.632586392036,31809.459472714425,0.3838749534342776,41083.3756606476,10367.067291837688,14596.87225666557,21827.725098682127,59786.47848544558,146.54782253237283,8.1359405704987,19.315712098136867,9844.370298173439,1689.5338543622797,1337.3350147041492,1,High Risk (Failure)
100.28516733205826,4657.344348886907,19079.089890800213,0.9816094273320143,22823.069902041876,20425.430173342753,14310.722546342484,62352.01895093002,67366.0577581877,256.3136139096513,9.909493940855652,20.710489151575022,4471.80049650147,1875.859648018345,1142.4534204122149,1,High Risk (Failure)
177.23735596578643,9215.599311933365,8148.1754098384845,0.3654258803022472,15539.041026157396,19989.4665006262,2359.5379686303327,36791.66737511166,36357.92555785157,207.25573693037438,9.149390445418494,19.005751395088335,3950.8997355561905,741.7407824402371,1238.7660102630493,0,Low Risk (No Failure)
182.38132184674052,20812.091333954726,15056.69540640715,0.1164627488916321,31439.380342417953,21110.720616056857,6003.789270525839,65974.55558975306,51067.49244567078,115.72262891320668,9.665099188902182,21.91080713472342,6700.32697733418,1204.2919579305963,925.31863916988,1,High Risk (Failure)
109.87553084728772,28149.12036082865,17235.8007677274,0.29259644362394277,18914.043797889502,20081.033034870292,1057.584262247363,35988.112719775934,63777.592859951576,267.502829852548,11.107446186780349,23.471199822019756,8583.20775438593,1719.597410711804,739.9622775469347,1,High Risk (Failure)
89.7172915208297,12267.403292175219,11597.736441181227,0.8065452246242049,54965.11448311697,25173.003838517343,11375.509158264387,28260.6715097091,48428.39501879471,164.90832596960996,10.265252126349575,20.117125429848635,8061.573399939176,1283.472737950509,563.9863025869423,0,Low Risk (No Failure)
147.4333666764999,19663.01156663511,10503.927619065453,0.7609735645316532,28873.549674069378,18968.16356974787,5167.76030676058,54828.567396769344,37565.73418497696,254.73935530746257,8.33474345387178,19.791833743626746,6949.223041387873,1596.3427514820705,1311.41534119601,0,Low Risk (No Failure)
96.46962600671067,27471.22321182799,7189.049987770632,0.19129317420210723,42298.001331431195,18060.78282624999,13046.310299328808,26716.178521691865,67401.12955966295,239.21944765736825,9.43141572560006,20.705700002495767,3875.461756781855,1363.9055759117707,947.8504304713185,1,High Risk (Failure)
110.06712768461162,15530.37395603813,28052.316293421027,0.8925114877785294,22240.651112365806,27720.351080657852,13051.162301050028,11622.330001401047,23360.00006684393,152.10956300024282,8.36128543728868,21.957732207204586,3512.9334054409037,1597.9503639068735,695.9271825618669,0,Low Risk (No Failure)
81.65665316442968,3417.9925592940267,6133.526654367388,0.0929116613297033,30661.752453969253,23311.597823350876,5802.164727972598,19940.433877457446,49462.14487343315,119.54784706125483,10.072754974321377,22.934398478320777,3778.3643468459486,1016.1864274107206,856.7850453979742,1,High Risk (Failure)
148.37858205075747,25543.222370645337,18483.775795512236,0.7132530312512708,33104.00945283729,9538.06583634895,12789.767493120797,35337.13626795779,56119.96336077933,167.9527628773651,9.042498491578774,23.01133998367214,7998.643517125192,1174.4957873754333,691.4311656457701,0,Low Risk (No Failure)
214.84183444312993,20721.335634853825,21432.12332972822,0.5189954564321649,29690.284668787637,18177.358574485428,5485.977395157701,31002.1582303767,64277.67554800983,132.2931513246899,9.22286130276645,23.908100577766092,5248.78791202904,1582.6972869786855,864.2803936707676,0,Low Risk (No Failure)
171.4779464582641,15630.584797590238,26240.71351993735,0.3221934506479628,28523.82973727161,26616.41519340034,3308.6944138538015,61740.64361901137,40363.79496619159,258.85362921009244,11.267074066175894,22.749112478913304,7442.569831239216,1575.3970788787271,1041.389203224132,1,High Risk (Failure)
159.86382525586146,21602.232635359942,11073.865509164942,0.7896994303155147,48154.2267629445,9750.594814816337,9543.405839532881,47566.73083800732,36720.46544066035,276.1836051903688,10.486356237392878,19.907727957206802,4252.841145251732,712.811859473163,533.1589217172841,1,High Risk (Failure)
134.89104867748642,8987.953713924762,24352.923369279597,0.4880834771971446,15986.689340501545,25971.605775781234,3687.4001200867224,40427.41305610054,12316.473615816483,233.9462152922278,9.322415003306709,21.656743793813856,3975.6346123593125,1311.7248365541845,1022.6087385777936,0,Low Risk (No Failure)
187.4459665561882,14450.484915556912,21613.218628833143,0.33874449424367215,50501.48695863465,6048.187924112701,4455.455581829224,65049.88578892329,21944.104634336123,155.62872179570655,11.327179187847864,19.623853009525043,9314.96027000752,1916.0323535462765,1248.8281835850275,1,High Risk (Failure)
217.45765104583964,12890.689815510546,14826.418128154786,0.484368151342658,49558.537342855496,10822.137783249382,7562.158464598516,33605.067205658524,31759.94305100072,119.26687382705407,11.478533068876594,18.9303719116018,5058.765226297812,1492.9951312956068,823.4228375938073,1,High Risk (Failure)
62.06359516632407,4657.937802577189,29974.684232583455,0.2661499469297314,29946.971240369894,17416.65452358377,7871.687983257766,53061.274703058814,66195.7253096434,279.6706167634858,11.132432641706759,21.313379717681382,3834.8733538759616,1540.0882236890677,555.0764507417306,0,Low Risk (No Failure)
154.67154596901207,6553.1988323354635,6181.7048866906,0.2923474242151515,44285.87137740358,19836.293479264008,12632.923754994606,49625.2050006325,63090.38484998009,103.8349082507569,10.624403866089398,20.200373758756047,6506.949211744479,1794.781546807252,1055.643101795994,1,High Risk (Failure)
165.49662755292525,22147.967223829473,24996.153658930667,0.49431424805005963,47823.89969644156,19087.900480173994,8611.943687054463,14590.392383172448,44197.42679302538,161.03007553574486,9.79145481492237,21.03913904394503,6827.870781508565,1469.515320946779,1376.8458325453162,1,High Risk (Failure)
70.81801017475439,4742.888620042826,15543.250204120503,0.6017644421104693,37034.51360422642,19653.535831059195,6304.133508018068,56700.84445706351,58749.46825655774,151.23702305716378,9.478821758238523,21.832228888350798,6417.149508139471,1636.6803727145173,566.5740940907305,1,High Risk (Failure)
161.39385596248465,8788.15707799859,19015.224000573395,0.6263655419762578,47960.25521402878,26300.70349568185,14264.019974531566,46618.118450731425,25319.777464506376,223.68155336040655,10.756828017964839,21.940618483688322,8445.211537926725,829.0586980878379,1286.908501656358,0,Low Risk (No Failure)
212.5444607011352,16004.637404924018,15900.013457487928,0.5109305765941476,24663.007607290278,12567.866625594266,8425.71372778988,30315.84125240036,42444.58282863097,263.00780321647454,11.352512556487898,23.329004012736068,5354.263384161406,566.790893030806,698.8368061721012,0,Low Risk (No Failure)
62.199288641815244,8023.319922219263,21273.374182316205,0.9151407395173947,44190.73702069051,28351.094816187335,9359.992883071744,47550.02201346756,41873.27475089389,109.78377433247259,11.664965244643291,23.5122291366694,6840.590345450365,979.2415000469746,1422.8119153767448,0,Low Risk (No Failure)
168.3393023576015,11544.73202651185,34960.95445523861,0.7747234292206013,28552.449165056667,17466.50052046636,10043.541570335192,11696.616031273446,57511.763516586325,126.46780245859144,9.737386031003092,23.26234546147989,6752.211123605931,1775.2464325658434,888.2492180614684,1,High Risk (Failure)
163.15923977229096,16742.399855688163,17326.997149754196,0.9254515922785331,42073.60811205013,9365.971618436537,8932.40112053032,55177.39395584299,25215.158228378823,250.19637860806907,10.334782744962919,18.445442667348907,7318.169518372143,1356.987333281796,531.4459867356908,0,Low Risk (No Failure)
219.49988029535157,22345.0266123559,31672.771947468806,0.7735191902421031,24927.599925759416,5579.853510671069,2640.149001067819,69480.07805349075,45019.47955752517,274.6865346173751,10.63243864931276,22.270402880272368,9115.137732923315,1554.8056474916577,1439.3692721146226,1,High Risk (Failure)
107.93050847261982,15729.025064098047,24121.72551119898,0.1539609941044262,43360.71706977727,18177.952264210107,6918.22232660387,14234.178311020329,37798.39411601072,232.7393975709837,10.823142814430737,24.205330776554703,8140.806650616169,1822.693914007934,947.5547621048079,1,High Risk (Failure)
174.99489812195236,1271.0036511010817,31731.51850791604,0.41354052274348874,27952.813188456086,21859.08954661889,6093.608459055639,29356.351051306232,46168.94932030779,176.57072872562358,11.165236048250268,23.23083685624323,7391.928950364814,1707.5788662228701,626.7656520017682,0,Low Risk (No Failure)
95.28068214970354,6219.988881709919,13945.918944527883,0.6240284371728138,49167.12388485263,17013.978119860785,4860.111513201082,10878.960915735339,24859.24189976303,192.98662585286564,9.558975052158036,20.935269662456406,4620.629564041904,834.0140915646914,517.4273766724099,0,Low Risk (No Failure)
190.0479307612004,3107.3020398535446,12999.685763975134,0.4575454073734121,24802.10642978896,29310.167367757935,4000.837840891436,53840.712669095185,29482.086127672428,173.08146864992662,8.61765097763265,22.336766292352348,4049.143021198063,1878.9642791799054,1233.9359668307357,1,High Risk (Failure)
183.5709426777023,4934.182547650955,9778.491120483755,0.8087153968854397,56330.3252367205,18821.670488421958,14200.443144789659,27943.78589300082,25280.298132827156,166.1583939432401,11.591930128598502,22.940326300908374,5917.331520449625,1809.283841573495,977.7111290826047,1,High Risk (Failure)
197.9524757853102,8957.96631743477,30513.587533513713,0.5070435369367097,28316.571497818495,7932.2364306368,9208.091083438998,48951.36108139911,68265.47591349907,226.51863041988835,10.788460841375901,19.103381486551665,7513.872784734023,1051.4920524675822,1123.6007096271321,0,Low Risk (No Failure)
146.82314155321225,2455.085159279246,7959.721301984271,0.8906785956054708,26525.899093295186,24274.075612134424,12834.70659082134,14357.288438737742,41997.07550012386,169.57252990361184,9.918946302685708,18.32893581693149,6029.980786387039,955.8538350009596,878.7598541202084,1,High Risk (Failure)
215.1855763459191,21491.519740832315,26871.012284884822,0.17143220447471808,16478.82266078129,17889.09861803738,13538.779836847589,21827.963311483032,43188.383400337276,252.24626708132803,9.72972257104099,21.607771980247293,3984.4702121746072,1333.066975744219,1221.578004790515,1,High Risk (Failure)
197.9223171636196,1467.6147447942317,18915.95664286543,0.24376949308272744,30395.088550137785,22625.186853018822,6799.337938738324,18257.67997397219,53792.15056562601,129.84529631063262,10.428148970745845,22.690727660278398,4537.018239405653,1688.2743326888171,931.033761720837,1,High Risk (Failure)
103.35083173061847,24523.715512494833,21198.44681664153,0.7510895304423859,31130.225121010364,11589.72952183376,2541.847136696289,46936.85750825186,42074.2125019283,146.82410293171594,11.121624852300773,24.61272356783582,4911.155296896137,1850.7136971382706,1030.4038727951738,0,Low Risk (No Failure)
109.9302471443233,21165.273271224218,28376.094102953237,0.10017100720143324,56703.649710532576,21265.482610054896,10623.72132511853,33114.79244063412,56508.08195177321,149.2437430106125,10.428220746350876,21.009180814359002,9662.217045910726,1413.28240765299,1120.6564957592893,0,Low Risk (No Failure)
106.19099788331198,15032.440672363513,31743.651936691167,0.6675482723343372,56688.6245362664,6440.584542104045,2536.9093804144013,52828.611840640435,42408.70374904625,210.58016513894472,10.532367109403324,18.01936970076712,3455.861229170343,1166.974306719239,987.9363416062411,1,High Risk (Failure)
86.5966979282654,14093.382234463881,16763.83564960365,0.08565039391541018,46211.37370188751,21211.047324585714,9672.051500437332,16867.650155482086,58118.75434453346,291.933476192337,11.341775472487644,23.1379753137197,8702.316527773251,886.2630478313528,1474.4620384881,0,Low Risk (No Failure)
157.07440742125695,24662.717893040994,33270.30523014072,0.4516366846832235,27695.022274661897,22401.915644190965,7594.381401051842,48317.44852831087,11760.648458700103,195.9832811042524,10.67072238970378,19.82385786475927,4196.683219358405,616.5148260852366,574.0413415283103,1,High Risk (Failure)
99.33559079894405,17236.899944542532,6892.255230289002,0.570570709130388,26201.11719602697,28980.94761708503,2113.2142583017944,31606.206808631032,17417.01009938723,260.7528689487697,10.225164818860097,19.168979650244363,3486.714032868988,1351.7433455622613,1062.5982367489871,0,Low Risk (No Failure)
166.00356549663712,18471.605943260725,23580.53917808897,0.5826009367844994,53613.51325012247,8902.624940935006,9898.525951632377,25620.315033940533,66955.24778900736,220.23187266884116,10.2267950932982,24.97753489276237,4875.128157810615,1026.1290924400128,952.7386989599285,1,High Risk (Failure)
87.0173541392632,6817.874762614928,21388.37314370852,0.14616535381183726,20085.56814061403,28653.422943081056,2376.9630796620368,32396.29899376046,28870.420358146923,204.26475092038916,9.184886899034819,19.314898040559882,4355.281794201052,1698.450904805852,606.6408187261827,0,Low Risk (No Failure)
180.99417823202828,12320.916935361662,9513.456523196488,0.2955524986352176,43979.751278438926,13024.53683981196,5887.872401137171,21078.606865812308,15698.635995990659,298.2430589250239,9.156607143985202,20.788950670556734,7255.232647782477,1216.5979175911702,962.0514166671039,1,High Risk (Failure)
63.890554629032614,20178.937689397007,14980.189595909715,0.577657996066007,54478.778564042594,20604.06139769688,4823.9582584707005,19854.04027097634,64665.942208519446,194.41547770582514,9.872872494309178,24.56239196331363,5811.211773289548,1530.2912243494195,755.0760205833743,1,High Risk (Failure)
126.8426851467734,17610.40278237616,29393.151413325315,0.28153504010689434,32090.561766507984,28747.374500465605,9178.438578544137,16913.37377895837,12261.507818820712,234.24171230676066,11.534754951298856,22.529414152888876,7562.250165099172,1244.9957413705054,887.5069547543637,1,High Risk (Failure)
66.33901205573714,16932.943129767973,8412.873874419554,0.6289883872243522,41569.677635051165,7952.293954928334,3885.667095646716,43332.372807433014,32085.419739193134,228.90074068175085,10.16249065277427,21.708134357224424,4794.59481431399,645.6674644810001,1164.1539254371532,1,High Risk (Failure)
206.6272871251306,22021.254753816535,25098.278400912986,0.3501615319680327,30402.68293643975,27797.011596936485,3236.390287928686,69830.52422600603,53713.38291343938,169.19839519065783,10.48389534491984,18.44057544225207,3754.0496182234024,1395.1886839640065,1157.135035821812,0,Low Risk (No Failure)
154.85442888129762,23207.13631037866,34745.230648355064,0.46205980189463025,27547.64759448133,15241.926895579372,7783.333677212385,65975.78843681386,57104.530472639046,190.435532206101,10.905121073317023,21.475502718059825,7100.74046762528,1299.1542278035047,1184.443370131337,0,Low Risk (No Failure)
160.63085548478142,8564.62813290058,12626.534872000648,0.013404814251991026,28280.67198027347,14908.266343403076,13468.018279412952,23960.212621467734,32704.033671455687,164.78337169853842,8.758403680164168,19.84234281464826,4055.489605478402,1867.0470645760258,1366.3018763116725,1,High Risk (Failure)
114.82322344360344,20115.510793403897,31674.348859873564,0.6158355154644322,58123.92132163207,12939.916740859298,6170.667569266599,29524.02296341754,17971.350067525484,265.19789079373027,11.40253294084151,24.337744431611128,9502.642172738168,878.1435165916403,502.5993515290329,0,Low Risk (No Failure)
96.90716987484139,6944.397751951413,19116.340548536682,0.8797079824040532,56020.79130619641,17026.56613365012,12743.288690323898,10691.785810583347,57564.5610616579,213.57382623995946,11.537991159347149,19.071475381485218,7814.638028459067,1952.0577526959103,627.686477343791,1,High Risk (Failure)
160.37262961450847,20915.915888175357,34949.09467201875,0.7264655537935313,43459.60123231307,10608.097967904872,2773.0249908607775,36815.40711100999,59355.47165672118,189.4333828018505,11.795536705247164,23.441805659538417,9610.531195321586,868.3810253611643,934.6851578741698,0,Low Risk (No Failure)
124.81643112441063,11647.919145155656,34019.57516691773,0.9271837688793476,25595.25655321244,18085.967721500336,1839.637213056514,60399.54668951608,46771.03620926411,290.7906326232551,9.19686830389967,24.671552339085377,5640.11494268881,1016.4234630416695,1130.208270218232,1,High Risk (Failure)
70.45701452783078,4677.252174676041,32724.438474100967,0.584469931644613,49343.54418237726,13235.868458456502,12098.3179197693,26958.37142058332,59708.526401393,201.6864805189674,11.602245740009158,22.028502513833473,5003.748267155435,593.1718581659062,1421.2463861110514,1,High Risk (Failure)
162.64071700100027,8350.256760517472,12964.196749929468,0.0120980216984522,54634.744892701,20875.476751796865,12571.022926328904,16058.630229040287,21873.561505774,138.9838735173258,9.055570247195053,20.792325821790904,9491.07532954703,1756.3527884661646,863.4147697458387,0,Low Risk (No Failure)
79.66730855446201,20481.598837391113,29057.61176767948,0.5011666285631721,41640.13419717054,27122.26803577011,11807.430335250669,60301.118338033644,52741.822785799166,106.02810355266045,10.163925898356887,24.0289708500039,8958.987218977734,1091.1020823451254,1331.1589256585767,1,High Risk (Failure)
205.5402911098548,27515.87283732802,28356.590765556262,0.594552562360948,16950.24299861159,22244.568778501114,9578.615371789589,65653.95051037928,44036.377865691706,171.1217873257238,8.606717452595513,23.331083817430937,3660.0912410606343,578.5513306953917,502.92823209154005,1,High Risk (Failure)
145.37640747630056,27539.025791741984,9811.816250184356,0.35075321474935495,46116.56320087106,10365.50686678056,6724.485685875479,50728.838142652814,24075.161465114048,245.0012876206306,11.40705540877304,22.154879571845818,9214.547354364706,1820.2121788515594,898.4097845466673,1,High Risk (Failure)
181.88771062043156,10768.583341967429,15077.415353200686,0.9218884855854572,54139.82098125849,10887.915464627222,8407.661534741714,67996.4063112672,50507.802405207694,156.27829552724597,9.53307690765254,24.013101363784155,3302.715292400139,1197.5734935740468,1372.176668365151,1,High Risk (Failure)
145.7050558956126,18079.144654313888,23039.250914441123,0.7822290004721234,50888.44496931042,9878.82651419302,11644.551050380986,65370.88414889244,48396.01633783379,156.25376399145478,10.946204781564152,22.60404395329966,3645.589602712141,1135.5212501489905,692.0805390173033,0,Low Risk (No Failure)
72.09680649868012,3282.258724517774,27442.680971093792,0.30360504708709235,54114.00396291632,8209.882887441634,4326.421474140583,69762.8874951411,35979.80125309105,265.730358851509,10.845190135461836,24.2463013458173,9697.672646176605,1911.6031038517024,1442.2987400912896,1,High Risk (Failure)
98.64010047885336,19752.012876069104,20051.089525290474,0.26646694120920267,41079.270457217644,13172.811681309806,9228.5095266126,15913.004342640601,22617.38210706324,171.54356036501798,10.972526782837363,23.677169792637912,5778.353666181316,833.2430743084412,1259.2100563079948,0,Low Risk (No Failure)
217.86233256018807,7310.05025801769,27786.85501741725,0.15763603583298058,27048.174844855414,13422.364129476447,11684.505946217396,61356.06594160897,47788.084725497516,238.6137004536818,11.011947998417224,24.122977177422097,4102.518066794612,1842.7706945670423,1069.8076037779538,1,High Risk (Failure)
197.33466828785933,12792.459279664143,22440.176507968958,0.46810204444960535,27536.332778117954,7775.648705292225,4119.280751477345,55375.762659256776,43038.16080084372,248.20662044147227,8.920037117543435,18.87362533680426,9773.020516797904,1071.1590744066184,1473.2729573060053,1,High Risk (Failure)
95.81081837161969,27775.294609404133,5911.922444345784,0.3379014257750631,43918.519806863456,15302.808674119202,9286.881965281775,48649.55714760386,36346.6716400353,169.66452630662153,9.021904943454317,20.294954100223404,7570.843088269957,1334.2424765636024,1377.7823227711383,1,High Risk (Failure)
185.11359634527346,2885.0228795177663,24773.89737869482,0.2569688538992708,20831.19755684652,29699.280530533797,8185.067247431654,38409.73211899743,26661.506178975997,250.3305369259626,9.744365614506904,19.61491143143239,3664.331344609479,1612.9085073521424,1252.200854800877,0,Low Risk (No Failure)
191.40116874752206,27454.038866664243,22920.479029335595,0.2505014246959396,21155.250476423374,13709.687777880337,7884.047018102847,52678.19034273557,31926.857001257384,256.40071620041476,9.450762380156569,24.69246731955476,6200.034494624093,1299.0697602402017,1292.8045008504391,1,High Risk (Failure)
100.85381980211906,18853.107503810672,31544.092428805874,0.1496775055704488,23012.944724612942,13030.033717326627,11972.60623495752,16880.894719404827,61397.270010476925,185.2761764306181,9.794812806467037,21.703009491637903,9651.925418125054,821.8541838299137,539.7611339315608,0,Low Risk (No Failure)
170.4007825313065,5978.66765625329,7141.010416681402,0.5739453222006694,23436.569887436402,9987.119788116212,6236.005848151282,16184.418199091595,23835.74446951016,144.2660907055954,10.076252257586276,21.608783924334226,5552.19168913636,1389.712647545317,1217.1843434380812,1,High Risk (Failure)
179.36718068246773,2973.082108658421,34220.93674916192,0.36888462237400566,31176.948023345394,15545.720064369845,3090.946352472203,68489.18410666968,37476.72008646129,116.20946239254016,8.087185872931123,18.41383630983989,3018.4595929237016,681.5940421437748,1227.753978397809,1,High Risk (Failure)
172.58525750080378,17554.764152084084,17511.461849627027,0.26837836527714776,16517.854835597354,22828.849597324777,10919.455376504287,42663.39471243122,27598.638191333826,124.57839364482652,9.969871343505497,19.16961224471679,8736.405594430373,575.1913018892116,1324.8692827397954,1,High Risk (Failure)
78.21414295625623,23889.428985636037,10171.88429895358,0.001145950628256287,58863.16262658783,27457.96983319965,6392.244726882906,54183.6712391685,20624.486302003283,297.3938910118537,8.42255896149552,19.722397822586068,5085.099863534468,1004.746222021234,933.5422905441983,1,High Risk (Failure)
142.94528351123265,16965.813717979872,24247.108866952993,0.9554709904951643,33849.295201290864,12721.04588761572,3196.1286150841183,54909.573504039436,10184.883896158499,116.27790313331876,8.871244757504304,24.62840632950242,4352.377945753978,1207.6935474432948,910.9828710862882,1,High Risk (Failure)
84.7135595557318,5712.454048758802,23003.718198184895,0.3795936438224399,55064.828640406595,5468.153816496583,12513.119798058126,34509.29827479484,26676.367605582964,170.14595683597258,11.91541186268286,24.655585936833916,5658.939559722737,1707.7499850476063,760.3375741559994,1,High Risk (Failure)
70.51117743269853,3787.649700232393,29343.590912410717,0.16551973560490962,30582.34199148338,12007.296528319792,9350.319549859514,54214.115388368926,16755.089707976764,165.0181680123273,9.80009810924885,21.389678915238765,4519.147866769157,1065.3042325929832,1302.158538985863,1,High Risk (Failure)
129.24343749469102,28359.415110693277,20036.981800352238,0.3292757292224576,45045.119164704,20359.023592712783,7938.838786648722,61940.43294126668,56706.596481322114,205.56021029315008,8.372957504493762,22.87432703728898,4571.088364408082,1328.3989581035598,767.3334137458733,0,Low Risk (No Failure)
156.92467991243046,7287.61400194414,7151.315626547981,0.6717727263622298,26030.947417553114,27955.215022719356,14774.572509040247,45534.928923361054,36017.56501255788,272.25004800018564,9.820045013737477,20.218806607727632,9917.609135517263,734.1471122534817,733.9996971092909,1,High Risk (Failure)
189.77980318935533,9776.569878467622,10268.466029934993,0.126621121690773,32923.952565602245,26561.16566138006,6146.63820733176,25349.01300055389,42237.29117235369,261.1060307826942,9.046006900048354,20.505396617002525,6013.159267863987,1552.966897112308,565.976676168153,1,High Risk (Failure)
150.14325611402242,4389.484057137232,15394.85189530475,0.59850341405168,17316.00173291861,13169.987619986845,9756.308659825301,66417.00082493431,61827.108192711865,103.92482075229425,10.914366193002369,18.956094211825288,6682.828403931755,1993.9374192909918,1353.5941757711407,0,Low Risk (No Failure)
151.49956339634986,9646.360332020113,21443.601949454554,0.8272769548719391,51306.52576866323,13233.435298672517,11605.635368801295,56237.715724435315,58874.73349053416,285.84659911203835,8.036044002747273,20.765272086470702,7099.033342515544,1160.693160403082,875.0400860870416,1,High Risk (Failure)
216.1398007856086,1041.421949296125,16978.977680773576,0.6819051664607716,31555.992201723184,21801.467284637227,1145.8407543529975,25317.791202580636,11964.052737110242,257.4505140815644,10.784912256573433,19.755622029039053,4998.069778819405,677.7307181336602,673.7987849044762,1,High Risk (Failure)
181.4868011069558,23659.33033346081,13461.270643690134,0.1909688977592494,34164.75590092632,7123.343044287832,12172.859114268464,64561.73768096414,43175.24901110556,259.8558846549714,10.51989225618746,23.041328158494796,4292.355393564748,601.464934246059,1250.8430155980927,0,Low Risk (No Failure)
202.46552275509256,23788.44604308615,17500.102496191113,0.3884078338719519,58617.11599568368,8177.974225992713,14211.52266892424,52261.45105720491,37476.37835920095,276.49787606940424,8.688949153748775,19.336479710704495,8535.617445492862,534.6719076075187,622.7986465627737,0,Low Risk (No Failure)
121.97160287605024,3521.247260075371,34515.37768542637,0.14171520824757244,36379.99313175115,24761.936228546423,3774.0283353554482,44725.80359812811,20137.931480303923,119.11681623335006,10.388132937529933,18.18012815113285,5746.550349806858,1495.8779285381315,898.264369010072,0,Low Risk (No Failure)
215.18061227322224,10072.19172820238,30590.406769637764,0.7760489588693803,20214.059738612363,18137.62857876985,5481.39673564484,34543.32287875752,65858.16948930082,282.2452068007268,10.679215279691396,21.271376880423837,8919.145490125075,873.3415010751371,953.8552745398072,1,High Risk (Failure)
203.05587258866152,17778.35403610128,28879.197306569033,0.15196252587821513,34696.93408875326,25446.826437598163,10666.523212939375,68080.39937239664,23805.931229630805,274.6096551573944,10.656590528299047,21.648230517955955,6827.146223186669,1060.4724844168381,839.7932084208005,1,High Risk (Failure)
112.06395170548284,13892.631531013427,23675.47605238148,0.8607020325421499,48957.98022445229,21175.87561417718,2381.4093731957882,35011.58921055903,42502.95855658091,154.01225219181455,8.430944047784497,20.568162172560417,8071.232350983005,841.3103937602652,618.0127042130246,1,High Risk (Failure)
132.05606172492685,5819.815567453618,22740.27769395925,0.12802476286107678,37092.40548463311,23386.922304273074,11409.967821115437,34739.27267945408,46021.51765021642,148.63103869205153,11.579702908549802,23.647585178568775,3027.182849665847,1189.6674367283206,1090.9325233188956,0,Low Risk (No Failure)
110.38695113422332,8857.933028265366,10112.99605639988,0.06877060197114782,58755.31694680573,13096.744197595293,11238.984673340063,59830.42917996345,59429.693719591516,147.81820779667765,10.427742743409706,24.70808822630871,4106.883885531561,1955.7062170666863,1146.401530172703,0,Low Risk (No Failure)
92.07592248454445,17147.73244807092,16272.780434118888,0.6095608219048099,31238.246682571153,5316.419255296562,13123.482907801863,24903.451266118936,17999.64516079887,208.2953703983796,10.154801668127993,20.45833044933699,8867.122936944725,505.9291557473957,1435.3518652069222,1,High Risk (Failure)
123.92300553390956,5149.360467102103,34865.60684793137,0.4729159709784576,45880.12514336972,23841.232058039514,14749.186360806092,23715.345357778922,48591.00038766886,107.23785945373277,10.833945085837358,21.039443820648025,6249.080710713128,558.4106037955912,593.0733197998888,0,Low Risk (No Failure)
73.05579520077414,3501.2259678149826,34238.27632589725,0.6080704476990816,56776.73296744729,17742.00333820828,12122.040083966305,15648.129855288247,54949.32121252516,240.51222969539734,9.591175698345587,21.51577868887612,3684.875005146023,1662.422125075408,1268.5114694977224,0,Low Risk (No Failure)
68.29372785915665,2151.6250195951693,10437.434181984649,0.17896181713500103,57249.135325919146,9583.07605562402,2549.449707641486,62898.625310856085,44674.12465804183,142.77430733395514,8.204847168863415,20.56353886043639,7140.026887850643,689.4197811145307,1101.8566617370734,0,Low Risk (No Failure)
83.50750777340332,24323.573476975052,6580.199954890914,0.4985074665241014,31323.021819762485,28655.00529941836,1987.6580611594386,59493.808432527956,58186.11224832605,281.86738359584126,11.137389581181978,22.288783884531377,8786.80446163347,707.0420930807045,775.4513189443458,0,Low Risk (No Failure)
196.0930766550787,19127.655027909328,30872.130568792672,0.35467082661031046,58846.13698271499,13060.554152836343,5958.520935173322,67291.61758114581,47085.51514223985,225.63932207585623,10.838585573022192,23.278765352723248,7459.683776716414,1014.9574102764047,1043.4085559009648,1,High Risk (Failure)
95.30416953947976,26838.86586468368,31678.5638622279,0.7243627065632184,59091.45782502098,14108.068929939995,10510.976433178943,26967.229748283866,28951.529762317226,170.9205000655282,9.146818917783621,24.934867201755004,8152.5397487412365,794.5232632119144,1270.1201344673764,0,Low Risk (No Failure)
161.45664502021302,22993.158376107614,25149.287643648357,0.12104877617233867,45636.76904790912,28021.552298656374,2557.348853852957,44817.73078511625,63913.041863898055,219.56057268303186,11.196856553123546,18.47328965048862,8287.087431023894,1852.195774738998,1190.656569823958,1,High Risk (Failure)
94.432299522758,17178.49632375868,30739.85668182076,0.6120009375568681,40177.888504679766,18542.725621847974,5249.506937788964,31367.704433988798,24268.34442834675,219.24672087457958,9.391576054230075,21.681922687924207,9980.90249650135,1204.186169219297,1047.200259647189,1,High Risk (Failure)
171.54619074207687,3433.0408582383698,12630.202627328126,0.37803076687431036,15766.41574896016,6835.470602115702,13721.130782967586,23571.67749069917,27457.064097656705,261.7418328686265,10.332461902863866,21.80571347007968,3432.8186689085487,563.8288441613665,926.2704807672013,0,Low Risk (No Failure)
190.23524312096302,28884.767963552178,8811.687960730229,0.7893829606886293,46839.877401309896,20048.123815174295,14801.822301547143,57327.69662863726,57557.25629244432,294.14658118207683,8.94944718375627,22.72212838244879,3381.8485407329085,1542.5793746319282,837.0249849613472,1,High Risk (Failure)
208.50913569823223,19580.596517089423,30662.484638935402,0.45275065185803587,17904.651226074748,15476.963251134604,10527.019170296568,57498.446653584004,33628.73845961879,254.68831221993221,9.20918329348228,20.14684392940069,5628.821971735608,1136.895018611369,852.3048273631252,0,Low Risk (No Failure)
60.66999098047326,20458.266575087764,28994.883621497047,0.053465724125628444,28467.280173481384,13730.807272728422,9004.390130694954,62212.03187367211,17293.718121504604,192.09890904952357,9.543771975958647,22.94814083619711,5036.186174672752,1365.6008829739876,947.3287576737669,0,Low Risk (No Failure)
164.43937725629996,17409.701834909483,6664.518262037319,0.6876051009937932,56498.767738546674,12399.824554143217,13045.832562138838,38732.88113095361,39649.19341588575,207.21345337772505,10.07526049974765,18.60784774763805,3009.2654007036144,1590.0004610757796,898.0947797464918,1,High Risk (Failure)
90.69877195499886,16470.926053598705,16551.237135212352,0.4029997590536022,58038.88299799776,28424.592870899058,5245.008506206676,68766.76747187895,64572.190092989855,274.5940248482723,8.265421044000197,22.698101052221034,9516.758549864699,1257.916306961756,634.9711156005276,1,High Risk (Failure)
152.364644677301,3104.6691432966127,24667.818537345178,0.47992568900439403,54045.999473151394,15294.432264058934,4898.252549607956,26632.25113941657,36378.724108089766,272.1967398356479,8.902106609650506,19.22730094749933,9473.927335565371,979.5768866714604,1117.4712972808798,1,High Risk (Failure)
125.76455516907275,2535.1421314957297,29649.397914935,0.5337533205937861,29483.78353754578,23356.828346896662,1739.7213291017883,36740.06385708922,61613.34190353842,176.79641558228377,10.484529850905272,20.487845490567345,6415.817561456257,856.3944338909971,999.5187821232678,1,High Risk (Failure)
149.1739471316813,10664.010475971101,10554.951362486077,0.01316277143189759,59446.76143722891,10143.654551152187,12237.054631499484,67817.89072479024,32031.760499917564,196.7544582675994,8.725732146701311,24.373139081854912,5504.538491978459,1030.4193414974952,512.111493606326,0,Low Risk (No Failure)
110.1356668136229,13702.976044231758,23912.652445067695,0.10886044664665517,26972.79856462162,12074.795941631242,13756.459913331562,52513.7058571589,42839.56463820207,267.9356068921431,9.473977350576991,23.185705293432285,3586.1538663277424,1881.6092420067898,1403.2945679694606,1,High Risk (Failure)
156.47086023671386,9300.504909959836,34579.15831851031,0.923542756936226,38928.422922658865,12431.463672592196,9919.630283372177,24669.272233590287,64880.43254043402,222.6490468931238,10.389696129763953,20.79471494825187,9123.210134811136,1459.2112841844046,508.90945266007714,1,High Risk (Failure)
216.16221172467417,22772.916704213843,12766.662259115135,0.11211364833819615,47185.93307045111,29313.949076172987,7490.951020352901,41330.03468642634,60518.963672336584,262.39407728766224,10.032071674882816,18.59804425788078,4036.0456556563304,1718.2522800701631,902.1072657180941,1,High Risk (Failure)
112.0528529221223,11063.067726953797,14501.513660756482,0.43838089714093154,45102.88848557867,7721.058070688654,12227.192110252277,44886.91826756169,27982.69417260714,261.8684349950032,9.525941577913283,20.03873442413598,8274.780913407809,830.2816890134276,1327.3926473486586,1,High Risk (Failure)
111.93373278404324,6650.374258005559,9966.05878081598,0.3822559146564046,55257.91210806302,19877.41093356622,9286.000431662878,56989.573740636166,21437.73406379291,125.61901060291308,11.819249328826826,23.845605194296407,4137.46726819664,947.6420688779817,624.2993426854289,1,High Risk (Failure)
117.35451656708362,15021.44446809731,6705.217121371654,0.0768494618612342,50383.22679787642,13787.915622768152,6616.238701465293,35814.75979232478,15520.995072440284,196.1858939126859,11.813967148448954,18.092632165295264,4995.267523833524,1058.655826182585,1497.1445865253747,1,High Risk (Failure)
127.06926014433941,4262.619863904653,6998.662621023844,0.909499042940716,40589.233628055226,20005.171439816782,10716.872087678052,17111.934456975294,16160.394726852133,170.70518379582876,10.685930117230214,20.698552792825453,9392.135199819651,686.2027354973566,552.2222164779396,0,Low Risk (No Failure)
123.54936473895278,6577.157410746166,15823.6520323618,0.5879742483703485,56312.14064466518,23580.93131947711,7667.558369008955,12447.570895637062,26670.07275250104,131.18702298918862,9.242892540146851,23.39611211352434,7926.012555485337,714.7804251216106,1008.0234915859528,1,High Risk (Failure)
64.98930160980555,9385.359699170378,27204.481810927726,0.7007318803632652,28231.338216979697,19887.985246960856,10491.01868842538,21208.53224197685,64678.991667163515,168.61474694759187,9.291786402710745,23.526861526140365,4353.270653708906,1602.562228134028,899.3789202534247,1,High Risk (Failure)
180.38366116860607,8901.548336959784,27931.976076877225,0.3061039601576169,51697.48771965837,15991.143785618431,3725.2316634078666,33274.359774286066,53936.076226620135,297.5391012479908,11.364510432421373,18.799436401562122,6987.108620744005,1624.4953957387313,1247.2813976157056,0,Low Risk (No Failure)
214.1567915958924,14813.81051133662,29358.267539054155,0.043468399323714824,48160.56174772685,13806.997332855082,6395.469705149956,36496.12843250936,47521.290896624014,253.2555713114307,9.913263490666369,22.7217467991893,8631.93983879441,1982.369711851841,506.0411910404976,0,Low Risk (No Failure)
141.80407395212018,25972.292081781343,7225.178908547671,0.26577365681743537,34099.692180040205,8199.036540045643,1839.2049128989515,13385.972844660882,16546.29248608216,273.22388600597327,10.3674680100283,20.00783724548547,3368.4141154790223,983.365943468477,1204.7438206724141,1,High Risk (Failure)
157.83417779610573,27909.118265998783,33380.06580017143,0.35976346169672646,53649.49093164294,11658.527820060077,11911.49990954394,38089.88074042709,43565.55286159549,249.55106957248344,10.276634796559602,20.681403147409885,6408.668544464717,781.5296494396116,767.9303792186233,0,Low Risk (No Failure)
73.68136493671489,16458.603412746626,14372.176930388954,0.07153882189037641,37665.4908039478,8641.588796591896,12938.894523997305,54950.446677701475,36118.81404300099,190.47492033124524,11.504090639678662,22.666364116784276,5666.72844121428,1455.1820343684462,983.5464690924894,1,High Risk (Failure)
132.60632662138227,17383.625621921725,17206.371878740127,0.017589916212524592,24771.909742583433,7689.71111499686,14317.973147994328,28118.95666358123,19269.670020028905,142.1986845241836,11.067433260881591,23.654342758484145,6604.963613662623,1857.3356443971438,982.3343542728982,1,High Risk (Failure)
75.10702362567696,28887.574277143816,21120.732476806315,0.6827211777353029,35347.23384941208,25975.548958355146,6879.442971166692,47098.32978178548,16054.500258753635,195.7010074197895,9.28897137956725,22.76369218576714,3031.416803727107,1204.4589142020936,1091.8891102026382,0,Low Risk (No Failure)
156.39191071465405,27993.422497998094,17822.453605631283,0.7178297761408913,50261.66958377987,12676.048137248134,5054.942219886694,42152.06096498402,36775.26273599181,202.42965338874126,8.95159259213058,19.283406509125143,5076.77541427599,1031.8899753987407,622.0501551368488,0,Low Risk (No Failure)
176.63696986493062,20411.102172121085,34197.82230091698,0.3232467839440071,24669.64374417551,19510.250579449315,11533.7070000286,12680.512461127164,28208.658508483855,239.62384916245855,11.60596748276718,21.820883431714783,7061.2550873729115,1506.0370385122621,1190.0966110247114,1,High Risk (Failure)
196.05568017918327,20412.177286426206,5235.347637218696,0.9189347431104973,29034.945789672645,9874.099103092727,6955.428945182678,57634.75916421672,22487.267645599208,129.76638230628754,10.094374510080652,19.9831061414043,5394.0949904689605,536.2611847279773,999.7198010875093,1,High Risk (Failure)
117.37945311257462,27910.091835873623,11147.480975479994,0.3319833945432884,22540.330997694084,19685.75717214705,6664.440606505611,47553.50863944563,58134.50589388593,278.40450303453895,11.695266333726646,18.39933972534986,4053.7797208864345,811.8727203837125,500.15119030072884,0,Low Risk (No Failure)
160.4008741149392,25126.30470895351,26529.36759028228,0.02446470275893342,29391.912906038095,13847.010161590251,8701.696757809452,65431.320373058166,65212.25688513971,181.82634355161753,8.114264000188204,23.810536817394272,7484.009164898896,1719.076759602888,1165.820629731518,1,High Risk (Failure)
120.268230468714,22379.602640244975,26261.128676409393,0.598252930517052,57767.42148806007,23731.45288364822,9305.360627885953,40154.87852882735,53654.13568558267,159.01213419957816,9.598702721803313,24.12250190075978,9095.841878882413,1547.9996893025914,648.9569452134798,0,Low Risk (No Failure)
129.23666176315274,10268.093361539952,25801.85007795133,0.3475799043575002,44875.5041452331,16967.00635500437,10303.751295389693,41316.140067466185,46119.44301607281,226.7000724276854,9.030189147434465,21.968837805728647,5436.454742715707,1579.4636019995762,1492.1216308348748,1,High Risk (Failure)
181.0802409101816,11586.379434085444,18913.417920827684,0.3539955695446667,28676.565762596987,25089.352134596822,2830.388085434538,25832.949570995475,13497.734503334548,101.97049990434746,10.420080098417683,18.079959463110878,5067.3124537827625,1660.327592635073,980.8963788115984,1,High Risk (Failure)
158.12666958198065,23341.94182499067,10209.179378762361,0.15946009778676717,31159.337259137596,5760.650705067778,13687.251837448708,30143.624069315072,60098.86026618523,123.50692410738839,9.912497267308776,21.923127707752386,6300.282417690961,1401.710704298744,1435.169036999146,0,Low Risk (No Failure)
170.73178352389903,8302.626358264819,7844.913165323041,0.14473293333807224,26337.309558410107,17772.93158296548,14839.623269310972,60968.20360914173,22720.252549285575,258.7985898087225,9.823155509396912,23.352758994275522,5414.756502525182,1890.8122822656067,576.6478551391644,0,Low Risk (No Failure)
156.55177494102048,29014.622314776047,21380.737799622508,0.09705413098337767,48216.582801032535,26689.500769850867,2813.464505894578,43624.72210469555,62696.689475391,166.1004700539202,8.504692065797482,22.033565587954026,3581.193166930024,978.825729372139,1081.6621319666938,1,High Risk (Failure)
90.03558491076033,7578.275967439359,34097.7672069783,0.5889725888763422,49505.02910399594,28318.27713773718,5456.722402032208,13961.555651166862,17869.81915024833,147.81418720075683,9.960642650059011,20.2144739746298,4570.173230802327,1982.8076520141392,609.0976564960791,0,Low Risk (No Failure)
140.0641833136322,6804.472126231638,11122.191752054207,0.7197872624682846,24972.326553407795,6305.117739877456,3083.3162446751085,66068.4358147979,66150.30324253737,118.07819841644127,11.377321004061077,24.7767022849349,6483.353670667031,1275.199785517868,1232.0370107345052,1,High Risk (Failure)
139.5479622413484,25391.788947866942,10228.36035504082,0.846700723350401,54628.058218876,15848.192236562687,2302.7462433122255,48473.75655186465,25753.14672827452,156.42520319372625,10.492175208576251,22.50613071390321,7325.860369492607,1077.1949192369157,1073.7116506160232,1,High Risk (Failure)
70.90756950167898,22485.61299493758,15045.708529969435,0.6638101052502828,58698.32992196198,7551.99917435468,7693.391217775417,17328.10009281599,38440.285294367975,228.95619628503167,11.344536868337503,19.67338429934912,9770.195195340502,1432.4960041819327,799.809210640582,1,High Risk (Failure)
170.1448029587419,13290.437370033653,12824.25281578329,0.23515557000841703,15490.814789300766,11008.023882315134,1909.635194705655,23013.636474343468,14963.176062847986,228.90141569023461,10.52491794101856,23.787547439009337,7211.489335637794,1182.4989922765244,1311.0276529172536,1,High Risk (Failure)
160.06935202665494,25622.000885220717,13536.825192848079,0.7336440652625665,19665.613066696314,13168.809734459366,14214.388740544298,36503.553425936145,34677.49653317164,180.06094833589086,10.126681031555476,24.793107767755608,6303.240766097242,617.3875311513522,1086.418780167569,0,Low Risk (No Failure)
125.76337204248732,28518.57032747274,34101.72080114208,0.40145100761237196,24219.925291129897,24834.000305916998,4582.656599615177,55525.355706108836,33234.11538188851,238.97554127717783,10.301628956062569,19.816909618406026,3001.890856497095,1666.452810555293,533.1700319103464,1,High Risk (Failure)
103.85145429475057,5359.008052035094,15272.984251471304,0.07660290835821015,17793.531781441623,15629.196824669254,1261.6766356680032,39131.50160862105,18576.585755459753,239.5658456982602,11.191795006812637,23.29817062614702,7839.936321961455,687.992551630591,599.5799884531195,1,High Risk (Failure)
144.8483413198653,24522.032422854227,13714.448168268309,0.07914862094972763,29478.143234083305,6631.799964212239,8016.559861432298,49603.28446474462,59740.363458362765,229.78119090039885,9.076611577677607,23.763636538148436,8295.891091909296,1537.2725038711067,1292.5225513932528,1,High Risk (Failure)
172.9987563450394,1880.2603604571236,18678.385573059837,0.7006578288878541,22462.348921777222,12593.4955657462,1671.7152569631712,65150.314041778125,69749.70245948467,226.78826791379026,11.966839290083357,21.044685926840792,9800.28934228218,1549.1220660773195,823.3210858109554,1,High Risk (Failure)
63.351193764946046,24070.787365872795,9850.170066611347,0.37293213247009205,16420.53733844466,5931.718069088497,3641.7859551346555,64706.45014736321,35202.93125267752,195.697468255662,11.354982020254033,23.739905913044304,5811.182299878142,654.0899547466317,1021.954275445835,1,High Risk (Failure)
161.82421922934512,6485.022193475462,32361.933586291674,0.7861684214493713,15761.88376159461,8919.433660609193,12847.620570673274,16563.68629444116,52445.33762144263,124.92934978338502,8.414033859210432,19.04488854369955,5585.011404868702,1548.214389979511,829.2828010693303,1,High Risk (Failure)
70.51338230853638,18011.450384732252,23183.28799558919,0.49458625120264577,45987.08443422499,26281.299165856304,8521.24672837233,55661.197743754696,47652.31710671368,250.40174915597294,8.46620723724373,23.744266831742276,6630.6989393844615,1506.4156877801065,506.02320095549214,1,High Risk (Failure)
73.57403425363071,14349.542468640188,25812.238960949857,0.8623052365766706,23622.151088333954,16788.137136301993,9731.336715592748,60760.448626706544,37847.81675315535,292.21032998016403,10.765170635835586,22.524975895371895,6718.870088385862,1839.694340141655,982.2849857220397,1,High Risk (Failure)
188.79823994892317,14779.955114656219,10568.121918662995,0.4532846463376582,24446.734227577184,22627.100865352728,12478.69517765426,39173.230792453345,54377.08997721848,223.57728343897475,10.928294370933113,24.016603653913354,8248.375961741054,851.5569038297285,977.788863125842,1,High Risk (Failure)
140.8814016623782,12982.639885281133,11493.292502350145,0.49020285420562826,22416.98473456018,8705.818805903544,4916.165877473524,15209.849808244973,55294.032642459366,245.97525021700235,11.843786153194628,21.138132942391355,6711.778169790667,1656.5790416569087,1142.558848837608,0,Low Risk (No Failure)
113.63328757933964,23329.234927991427,17886.473705620265,0.5057654423348055,43353.29174374271,20673.197065687244,3717.83435078054,31222.595999141475,42316.923628670615,270.4017787144487,8.99892313779782,21.61738125737327,8413.117646614404,1954.3281464966888,1401.9109956919092,1,High Risk (Failure)
97.18149168896765,27676.25708978574,26743.67903586306,0.661476768856287,16725.707291643328,17968.410894724857,4918.815047511633,67936.66313716177,52955.36409532745,148.9934835826678,10.466616515971925,20.0425027657074,4496.582810268303,1453.6322372175537,1250.822822827819,1,High Risk (Failure)
216.63697842796944,17843.108065750796,6047.175772193278,0.02772532476184919,30095.786136352013,29406.435992935527,3855.9137697149254,60274.417117508754,53510.36586801859,141.00237150746477,9.852002114516662,19.736324124518603,5608.271334878769,1119.5204371044015,1297.22498605167,1,High Risk (Failure)
194.512484481792,10866.466839086454,23732.747815531773,0.85304066211651,19396.63354574167,25657.665682521947,5439.894547872605,53179.58055761401,58111.994399567564,172.5887667272869,10.388059002807442,22.324552428502752,8898.974651117405,907.0102160933902,660.8586443576814,1,High Risk (Failure)
116.14640200833259,20757.181205440582,8107.296983090451,0.8644769036178283,18123.763136556194,13722.904879410838,10811.085212729651,14263.700489409235,41978.390295806326,112.38404864328182,9.444205173669431,24.975208983764325,7689.236218844118,556.9985973165866,1194.7925338696837,1,High Risk (Failure)
174.30786625139876,5753.687599361401,27670.453311485595,0.5754409265306654,43679.11333502097,14869.024643380344,12521.521762483919,23276.63720658703,67921.37722349886,149.69791736991962,8.583901730673826,23.502642846058823,7251.249017971251,1558.6594032954306,877.2489955326354,1,High Risk (Failure)
114.46584897828154,16577.910326516838,15844.350022828266,0.8391728105102971,25415.392709383817,10490.949785872617,5322.745401020991,39493.822715309616,31259.683346108974,218.70147859258634,9.752814788405303,18.175991926445604,5774.939415208845,1515.6083369653027,831.917535044267,0,Low Risk (No Failure)
96.80141396603248,23878.504926010144,17471.339274495447,0.8654158817884438,24782.329692477346,18175.98312293997,6636.975191210269,10112.160707773757,14699.51914614636,268.13509831245403,11.738632248216366,22.041211191062818,8937.458906400007,1341.863599306955,1043.0340427630344,1,High Risk (Failure)
167.50283897579655,19177.276271880473,7423.376416230309,0.5028437106431355,43278.337339734906,23163.08679783791,14516.400004494051,33904.69970890898,51821.61323897082,121.14728616723598,8.676298002391055,20.50438518047526,8390.775474713133,1393.0696446865759,1197.418515414104,1,High Risk (Failure)
77.69657581970574,1956.3313667952089,22810.252231937055,0.373697169736223,25835.96894721623,25406.759935787246,13925.022395517643,12381.451440988609,21059.990723301067,126.29363374589909,8.8716203155573,22.8340783841573,3426.027573962961,547.3561897135968,556.3664830354306,0,Low Risk (No Failure)
64.58438841242472,14065.559632945206,33005.05630107305,0.6496631634695276,34547.77022448098,22504.053120331766,12461.09280004824,27460.601764657367,44796.710469303165,233.0281753797404,11.02010236346986,23.50173320941647,9435.926047792938,952.957737364985,1347.9083433820717,0,Low Risk (No Failure)
110.70752082500442,3413.4689200340963,17086.687368698924,0.7578462929324711,29999.301682435886,22199.800465892004,8880.040104786827,19694.738911588902,53444.0488838621,125.09304027448354,10.319978665532211,23.539479086767585,4505.339145023692,556.1647411482842,1340.8206534962314,1,High Risk (Failure)
126.16785624405624,3186.9531037908596,16788.764199100468,0.40934296382894464,19977.2588373299,17474.736664914322,13559.896004220733,40368.77514280536,29471.07604542055,137.24752258155587,8.04914705583353,20.820477428088772,8287.74199176332,1495.2238989821612,500.87255781259034,1,High Risk (Failure)
176.83547484115988,27893.625874385052,21183.03066463808,0.1645628766198204,22376.274132461323,13780.635109353874,7352.718949197703,23196.606239979148,67014.78244093145,258.5332370099278,8.29315924634801,21.736354044355142,4209.657641399211,1428.5937760845547,1044.041982262152,0,Low Risk (No Failure)
67.79117574398876,8713.247874969251,24352.48075900359,0.5076599964512309,57229.43169357344,22889.290255061707,2037.8916037439853,50434.54668730871,48093.64467560519,165.91599009237905,9.382601164482367,21.135462837201786,6495.321398490935,635.7416235090683,1407.881216255651,0,Low Risk (No Failure)
102.09801118573486,10297.977289956576,7218.895618128679,0.3955221362514192,44111.70140845585,10036.373816975734,8310.263747062785,54914.560754488564,28493.494084186645,259.79797732586974,10.671057425414457,20.15741631111299,6182.035789574104,1808.823580428756,1463.7295428719317,1,High Risk (Failure)
172.80654501657483,11915.238594299784,28609.702501544758,0.6894795937285974,31244.76414566102,11230.913613220418,14214.583339274306,37493.09529925816,27575.611580984798,240.68511048964442,9.324078900123338,21.90643788623736,5025.96112808606,1685.4923130302775,823.7504272182496,0,Low Risk (No Failure)
212.35548571161513,11420.830724957828,10096.486254824747,0.9644592682795124,20361.66870626673,23910.613407981276,14328.269365679733,19568.16071924947,46431.69646259012,172.6362451903856,10.48803582751379,20.78576324395558,9944.434761478833,852.0404100185469,1032.8928005062453,1,High Risk (Failure)
103.87443237578721,29592.090890122614,33283.1600331583,0.9030130391680924,20841.250139964573,21927.89929453982,5496.446927633588,62208.516484567466,49219.08518394575,268.47312857115935,8.930267804745636,21.36873223911912,4817.508327775993,1836.8698080720117,1107.4031291775673,1,High Risk (Failure)
92.55563879961534,15801.388919112493,12032.17233224777,0.13159407705151016,33835.45191618113,13063.873273653635,4638.972093759141,69312.26545771073,12127.570940661153,144.10369368045062,10.73953561526795,22.98165826803811,9301.826930483792,764.4495522715332,1060.0900151843107,0,Low Risk (No Failure)
191.60595886770705,10361.48400998766,20386.47807528721,0.3791393157725924,23334.707316775246,6194.787096753036,5314.717311232347,13844.649587580801,37734.84739193575,146.7536722359015,9.848010726471744,19.33065343894455,3854.6973974790326,1634.571920958803,648.720536114802,1,High Risk (Failure)
89.93988326568028,12390.783743532444,33686.78591228461,0.6211226029118102,41851.67879345825,29179.40445724259,13612.634845847464,30848.257030151537,13190.326464971511,237.71371623010978,8.116723309567316,22.78563625744684,6622.989059455238,1965.6109621408352,546.9703716509072,0,Low Risk (No Failure)
69.25482825014342,11223.347997715002,13176.429436790873,0.6454684255181676,45904.16701871091,13165.84650702483,5825.285845636993,28597.892917164583,62122.934182449084,187.394033988653,10.62645428324647,22.362559337784273,6051.569344772161,934.0355319429183,664.5988882916474,1,High Risk (Failure)
136.3865903168566,12051.914894742607,15744.405992050793,0.23437158640380573,21669.859941158247,19200.987563418905,9874.21536829067,65288.10872356935,55713.976305232885,168.88486505784203,9.763788040145283,20.798574866168693,5737.10474759884,1679.5711811504823,594.1743111910529,0,Low Risk (No Failure)
177.61136700862173,19800.628291665245,31803.30396128795,0.9418212689647267,43021.1959178989,19041.823970973608,5997.633188817968,68537.20694295186,32095.097931968547,214.28424286985015,8.309289382003412,21.420379665523697,7922.996328371547,913.3511430133406,968.51136179403,1,High Risk (Failure)
146.6252171756136,9108.441546708822,10444.928848125233,0.43884780971136395,28597.706848737955,21119.017880677195,14356.945716550073,45379.007674000924,17638.014167944868,116.20018987642752,11.6233273695814,24.82901713366021,3133.208296160778,1068.7783039072083,916.8109128167689,1,High Risk (Failure)
62.47305864461879,21800.594400106937,13001.102919116427,0.1558603675870771,42251.040466384264,7377.344995068233,14205.740643722518,30047.15617890629,62549.61084743376,221.00865612307481,11.36851375436963,21.60511080517329,4940.6445251322275,1308.2401388442026,1056.725863437884,1,High Risk (Failure)
181.76383855087983,22950.8785086834,10615.19344780841,0.5425702034080678,37451.58442616792,7792.653055824288,3387.2290196255426,51256.15064977814,56322.03205491944,196.27806605983153,11.077707676188538,20.025488201843586,7540.761905312561,959.9647033334825,1428.5897870687977,1,High Risk (Failure)
91.78105821789906,1556.014411747049,9677.787565214945,0.20448195025057958,40645.92510101576,11510.539213365915,11680.245791696374,32645.303669514065,67104.08822447114,164.90159572714617,8.443698733592463,19.851468488900135,3626.6325565150332,680.201659127641,737.4534573282554,0,Low Risk (No Failure)
115.27693659575132,12719.185584545756,28334.36430331752,0.8740459143411642,30568.08705270503,21336.086465270004,5085.338710835811,66203.37921403325,61295.234509058624,148.60722807478749,11.252043095670576,18.587024461583,7652.257752561704,570.6441079744468,695.9327019419602,0,Low Risk (No Failure)
187.90566382544682,20452.185737848034,27556.287331075728,0.7356975053062538,37529.99881002234,12755.648198441484,4863.416560547362,19464.526999443435,12570.076089912354,232.0402137111983,9.451262378735702,19.805424728217602,6560.506867951648,1021.8374446682861,984.4139288694876,1,High Risk (Failure)
75.54823900332296,26454.73274101612,7520.05143561877,0.6417370448140233,37851.9006610861,19962.649206015616,14361.337177707625,18741.0820831964,43797.57203626184,113.54604859420536,8.2895653285746,22.539118568171393,7995.872236708651,1581.823533796952,990.628607906515,1,High Risk (Failure)
133.92092858306123,29981.158713693807,26483.829214302124,0.3415481169231763,24845.130701821214,25562.309412651393,5086.109767596187,42098.17674147394,18977.56499172067,182.54314001916842,8.294482237173714,23.396769421837053,4324.8280074938675,512.4547685471032,586.799678119562,1,High Risk (Failure)
71.73825079353642,7235.138279830829,5360.274892527924,0.4666136228021257,59967.443667580665,20579.574035007325,6791.493587975263,19147.73645225325,64004.909606499044,164.2889906957285,8.444053871402943,18.055476233447823,9126.216700758452,823.7240377881649,841.5027195106172,0,Low Risk (No Failure)
109.6579134277718,5541.771631886847,23369.401545407665,0.9234760378183837,56939.32580426136,13520.93185875742,10696.218031579645,34589.71091526322,31038.547877465262,249.37983257591847,10.606698690742,23.68247406644473,4467.209248749263,1325.4673206544721,755.4344786933331,1,High Risk (Failure)
80.4586881955868,17733.59164902619,31588.872342541992,0.05700659464969238,20097.108742151508,16371.043021830395,5929.583626036366,65742.57486913531,44299.88813093081,278.93740724723637,11.897479104555442,22.649364084358954,5276.60080662225,788.7599249721628,1175.5326345573083,1,High Risk (Failure)
152.35198187752815,14923.913249512821,23260.66281587954,0.7949509328246771,45352.67004448069,28937.849108040416,4261.578884417462,65657.21988744632,10337.034939726469,246.25732749891782,11.38575747884245,21.006664598448445,8307.788105181753,1775.742645068532,1203.2048031123404,1,High Risk (Failure)
152.82757907637318,23372.727000928586,31501.048940927358,0.5921072134710428,54812.45727400296,18258.383719667625,4561.786291898219,30132.732258367774,49633.723027576365,191.18204788545194,10.167028781155928,21.359212255280926,6385.374821322988,972.9913198145,914.0401613139068,1,High Risk (Failure)
75.69321292547913,5757.84405969472,21958.668798619463,0.177116568678373,38679.39045258072,26770.131317741507,4815.707457160153,20656.552258322532,60367.222956596546,132.60465590024063,11.510708180375097,22.393531336496203,7943.498165336504,1039.84701280515,1054.807581019607,1,High Risk (Failure)
214.44843578086397,5196.608447959077,21883.10212404595,0.35413063634769526,51364.75490453728,20176.497559776933,14124.953135059654,41732.8352659356,58147.366247573846,148.7324093519701,8.098209539626048,18.619119206440676,8157.773762135554,1778.0485590818546,1093.654030158381,0,Low Risk (No Failure)
118.61789492699067,21858.110816699125,5246.693941666746,0.7731386728852775,45283.3877900317,16087.53456375104,10493.113142673037,38561.08227304644,44800.60105639087,145.69059997437063,10.67340416268526,22.013283589738002,4807.569973231461,1777.4265677520614,631.6809510731971,1,High Risk (Failure)
180.67972154913292,23403.155161113787,23959.740323944065,0.39551694310755714,44844.644728430525,28257.398518160728,8961.22920588083,57384.68960046916,34905.62619004119,112.38407337460504,11.440461014998274,22.366731372050605,6566.079846329894,605.117984408319,1214.7978048100272,1,High Risk (Failure)
105.72133193483296,15438.206234915257,22463.64112459508,0.4759759686597461,47974.28376217573,16111.035854424897,13096.121569874727,26139.604398094587,17391.604293272667,247.41266031719078,11.609821551664872,23.001035592953375,6293.758008450686,1271.6481373047752,875.3030921318782,0,Low Risk (No Failure)
109.75717147450595,6653.789873460286,5961.905512836247,0.24493904569365632,18789.605433180917,19085.054399325694,8060.689684953293,17459.158455739034,63583.59474616344,210.50004739573913,11.771567476980035,18.039041062815123,3421.7108205956565,691.4755999518873,1103.6066556496119,1,High Risk (Failure)
75.46317348604036,9283.171390823734,15573.883531977195,0.7921057794149581,42377.232891740794,21694.547475755182,7450.1549784596145,21930.921050950987,39914.953386074965,148.50489389933335,8.187994767507874,24.733663973590215,6940.436967156384,552.0998553165775,786.6869806714578,0,Low Risk (No Failure)
78.70368651333825,8064.828967483634,17793.314171429098,0.45681632620631984,55291.26942836633,27378.27424538657,1551.2551709418292,51198.93088402203,18927.06002426261,184.21885683028393,9.732316426739235,19.178177172841654,8095.73601666573,804.047908812238,774.0565006807158,1,High Risk (Failure)
95.2178121447605,2169.5746704938765,23473.776563041563,0.41969492349959714,45087.10712523769,25816.064458378358,8476.130489482224,39901.346882621336,69423.43843174478,179.6672213879583,11.023092847344376,22.096206985259723,3108.745955636907,1095.238704580131,1408.9063990198506,0,Low Risk (No Failure)
114.94187234842308,10084.271474175837,18936.153905732575,0.9260613727867529,44000.356387413296,8090.919183450347,3209.779752220888,53152.54526542218,38683.47692952292,109.31275958145687,8.04764549670067,20.56225610580777,3672.151652439128,656.6067406346772,758.0480554602833,0,Low Risk (No Failure)
215.24113755616912,21566.240410037735,26835.676041504405,0.7995603162422289,49347.50482171397,28800.897741957193,8371.074555350053,38025.26459975961,54687.20053111164,170.46326060584624,9.945610893140838,22.876221573010962,3227.7420735077976,1557.38850096329,758.9174314606801,1,High Risk (Failure)
196.09192448241856,28640.613762730987,32338.09366950533,0.40881141239231533,34748.47626756026,20636.049920150283,1042.48199064092,53697.95893790857,38059.516601639254,103.37498090795192,9.49153307647762,18.895734506814374,8642.951517430054,1168.2528803724485,544.2752666609765,0,Low Risk (No Failure)
200.69283450855585,10657.221358515082,15379.174634210778,0.9907324363757767,47664.34545728781,22332.171813932215,1609.2166871495385,13670.160963306931,15446.395862512696,143.28254450651244,9.154870891868903,19.16318015795454,3889.5517341702025,1914.3096512177237,1401.1226916716355,0,Low Risk (No Failure)
166.431555311392,20018.80225249439,27696.57980173449,0.9226949839543672,36234.356404708094,13281.2811747999,11217.59638053322,44793.59454252995,47910.67039854855,137.40034115875815,9.95968302984472,18.088103506076695,8663.54465848555,978.3509311321973,501.55312872446444,1,High Risk (Failure)
151.45803031518398,15517.966437683997,18677.47811066341,0.9300268378881623,37905.20797029269,21385.17808036466,14102.3040854048,37964.49049209847,46066.13491295409,167.21460234274235,11.859148020680049,23.664299810778836,9006.869110932359,1648.6406657128757,637.1318012408956,1,High Risk (Failure)
160.10412630836424,5716.914327507117,14864.991406435709,0.8968782418299477,26271.90787205501,6468.073359358285,13449.226524496287,32368.838315262376,39402.01777376949,158.2021189830428,11.317882731695065,23.35309217450783,9476.419208196437,1606.0902667105959,1291.163365234069,0,Low Risk (No Failure)
150.2271306808998,28355.653520123924,29883.399192849934,0.5007055904938853,48699.65758496704,13754.15892144244,8680.226603694384,49492.23940564678,61970.5840924412,203.40676967509972,10.466238286292015,21.69417190745791,3812.741363538857,1314.3960859760223,1083.7577825044918,0,Low Risk (No Failure)
72.45704313740313,22425.34645228191,13708.924491321031,0.626895679810717,39429.06629901961,26022.14542760551,5951.9901129219,39141.05955217194,44252.215402398026,209.96786266149905,11.246316034970256,21.579501874599895,9080.36793027396,1169.7984604824605,786.3319329712851,0,Low Risk (No Failure)
180.292023353069,13695.5408847975,25977.282057364217,0.40552522145794356,52635.44381036269,12187.134078562882,1848.4590155855162,35924.669154910145,63756.49087883826,121.111109388871,11.278960342155642,23.759908547730298,6828.334796113157,1324.1782174702685,860.0708039334247,0,Low Risk (No Failure)
120.65504778750979,14990.284446247137,11312.614512245545,0.11890301767799338,26466.03710146786,28201.313101719843,4055.041297461053,54197.27736280369,67894.33976955166,199.85778978231,8.07642762579499,19.54337487555939,4483.519103011824,779.379641100031,999.8456027793814,1,High Risk (Failure)
81.62660626477164,11310.36411740822,32815.24513207967,0.48155339712726,55322.55093740931,5642.121882617755,13377.931486036407,60274.91079515714,56187.02473422414,265.8305320148844,8.626633640089139,21.564543931690466,7354.760425986934,1685.2772713019417,1456.8220167587763,1,High Risk (Failure)
74.89644284894388,10633.003139790244,23912.027781079985,0.9791532397514886,17311.248286472168,27746.771852011178,6079.004321817955,48853.981945735526,34886.947678314,225.03500166196966,8.937579543334191,24.72460129412955,4747.852743246668,1633.0987829418677,1355.360185589726,1,High Risk (Failure)
75.31432888322587,21497.30429010465,9547.637357069583,0.9817673511979657,42432.912770949646,9484.75881474047,7173.700789613113,37949.31935786188,35918.238069994986,193.87447859193327,8.15944789364329,21.52446475075249,7164.449822817493,1977.0428490816175,1158.1704912143996,1,High Risk (Failure)
145.35377471621143,13474.139230807963,27515.719420902467,0.2668037820922513,56012.75415632778,21853.985554990843,14773.343582063952,52907.39156616248,23385.286844894934,233.21965515833935,8.412841733801127,20.26327879858763,9385.364993814415,1982.213309922741,1396.06139905559,1,High Risk (Failure)
63.09242094681616,23274.59197414133,32641.92764000589,0.9691165309407386,55564.9658632161,6083.830352988202,11546.294334469612,24390.5889243003,19688.228891142786,234.40896264562718,9.349444343580316,23.616622880024437,4420.0937515749465,1439.7746253855967,604.7323314945816,1,High Risk (Failure)
146.39766075453687,16283.221112864478,21635.37667072895,0.2821786456492331,47650.43387988905,24549.189076766466,3539.148643791339,46321.303088849774,69837.85064424787,297.863958694939,11.649772296627495,18.362812161666987,6603.336441683348,1805.107464027885,559.2778189408738,1,High Risk (Failure)
195.87574567906847,2695.2816298694333,7737.3452391276605,0.4065383138870131,58932.22201966679,17241.826637914048,4442.097579234289,48184.935120328824,47488.248803485905,153.33469049601598,11.484438824283181,18.786976534116786,9361.543804495162,1927.0478595462184,630.2044880064602,1,High Risk (Failure)
113.35986747058307,21548.92282726693,33639.12540080167,0.7925871600335685,53943.766588325416,22423.590645992586,3607.5025824290246,25615.529861607574,39570.22354229522,148.01299265199816,10.2161884180058,20.084041820951235,9947.497703890545,1637.202397371267,658.7428252692271,1,High Risk (Failure)
109.89821726670131,20996.49205825704,30078.47332734705,0.7965962414079082,56846.921954174046,20953.48497422049,9023.942589545828,67192.1247251863,24184.059989527468,190.25537353279879,9.611184286848104,21.557229771191164,7444.705871633861,1070.1896189649706,1071.0571599554512,1,High Risk (Failure)
179.94429307886796,7069.876199192048,19641.804688089887,0.6317361768234109,47519.26505976998,28033.51399512304,4733.292961965759,13546.008260618033,56450.32871739972,245.30565980073936,8.269029177764722,19.18460188779803,3874.0197187365743,809.1584200134392,739.1089493695258,1,High Risk (Failure)
118.87052020833352,24255.50463224767,19336.319169591727,0.062224172652242005,25942.540808657806,14823.790896472297,7457.715044089388,46395.629876404855,40277.01295840753,272.175629818458,11.472865235892701,18.023951234013072,4977.602543762165,1320.695751728893,811.0458879323867,1,High Risk (Failure)
141.15756939014278,14493.048407001776,12803.479490461976,0.2577976621641259,24056.86210174016,11411.569795155869,10631.76065610571,49583.43632944612,26753.664118331675,238.4962268459755,10.670225968272133,18.168961952897778,3894.86349803527,1414.1391242916548,1354.3966643062522,1,High Risk (Failure)
76.2885892719259,15373.963705614166,15026.458801122795,0.09007386294689113,31081.59056171034,29162.041475918595,12267.79918128407,39446.37917933958,18403.662443153953,251.3861305897169,10.911412541725932,22.031684387051268,7334.621605774868,1887.7477563317684,1230.981997971438,1,High Risk (Failure)
151.4793573029998,17485.693862547767,5302.712150656445,0.8763060296667939,48075.6213807359,13627.961610867122,6878.859301588399,34517.740823156986,46674.91927138629,248.05382249642233,11.691003681472123,19.915410880085954,6416.629981448099,544.5160460985012,1305.2901034445772,0,Low Risk (No Failure)
116.53635648416845,10679.521315024136,9996.36765781404,0.8097537174356638,58239.87581512382,18234.149687444027,5773.751766897271,65928.37788495026,66787.87692566682,276.28743498846984,9.059444543387956,18.06190818847554,8509.930376723782,1228.2837284199531,624.4306204096184,1,High Risk (Failure)
105.4694873138766,19454.808465578128,15057.435071009933,0.49840754271320487,30912.81131411229,26907.801239572065,4130.403183418915,64886.530242407796,47160.31786556025,149.58471518840844,10.468889718038874,21.89968947734328,4836.887884087275,1977.8019863364286,1076.6346426824969,0,Low Risk (No Failure)
185.12449402726173,20885.670295915745,5496.113736820124,0.1405791286630823,57649.9214160362,11884.268103041773,10065.926324626294,40097.02247117518,49010.657239747765,225.0322233534363,10.521147221338907,21.17012700436063,8363.643895082096,1947.339507552855,892.2238762285958,1,High Risk (Failure)
174.33534763200998,9091.240420086102,12597.360891207525,0.7461505038267879,37535.07709232707,10585.115615905663,14115.83834798295,32439.2671017137,10478.912700612389,172.93601605474407,11.385778390139798,19.775871063960608,3074.0732481859595,1301.9551302996026,1427.5900779296462,1,High Risk (Failure)
62.21794174605762,5223.2334172380915,20746.31654016747,0.6104755113536787,33097.66921690847,10365.460905217293,10673.337004982239,60958.263835214544,37639.7569042681,101.05780107541642,11.200305561197347,23.58210982137464,8075.167584329774,825.0772705606637,530.8540053022409,0,Low Risk (No Failure)
75.74330395414357,10177.594737783458,8160.016827348929,0.07066819030807847,24899.347281215003,20518.100300605038,9096.365995014938,27193.264462545812,29916.937846709323,140.7247327512864,9.148990521147272,21.314039420434945,6732.309941614759,1567.0173487249824,717.1127465495531,1,High Risk (Failure)
187.90654063503666,1385.1549002988224,24815.972463094582,0.6085123425253467,46401.13882073754,26089.107303532724,3738.620801000295,64344.950436481515,56003.88343704002,202.26981554816146,11.155224154993434,21.721381512755606,8129.693948835107,1843.0580202390804,958.0407890349236,1,High Risk (Failure)
168.74130918322297,13057.795800006306,25716.579211989345,0.9292489152431359,34357.40036315248,11855.313459266934,14649.509723319341,16753.087028793765,66386.06448206931,130.09260233132355,10.58632767135103,22.23713983194248,3931.484972810212,1635.9433372089547,1399.857193030109,0,Low Risk (No Failure)
74.0461179293056,18201.523870286896,14812.989962002379,0.21906682185959947,49404.81589217205,17363.754752429602,12259.820396594474,10077.752794706683,24787.885874151092,252.865796382516,8.005232798100387,24.68241532139359,7787.0101520496955,1756.832765978548,876.4345125462526,0,Low Risk (No Failure)
65.9757101998743,6344.740511552873,5216.598410111533,0.8329977422394179,51626.224795473805,10926.572527442015,6577.179731579519,54354.39738793304,36296.39596880594,179.69628056379582,11.20509118855787,24.732131066521656,7636.787872230654,1287.8233534912072,1029.7291615500276,1,High Risk (Failure)
185.6026470139291,26230.722840084803,8310.651696736264,0.8945580028773829,59350.85834569558,21687.477990599644,3415.3507577140886,63523.12919912963,29373.454571950213,155.23885312247228,9.685021886742192,23.528741821680743,9991.453036457779,1109.570535656771,577.1869278692136,1,High Risk (Failure)
86.3048846526206,12558.2175001797,27762.912521056325,0.7006723448461598,54402.81089733116,18923.329220176165,10160.02270266083,53006.88039955064,12546.368601408782,254.6488666697265,11.296783821322128,20.12956127042343,8016.804365377228,1966.558562532915,894.2635471942313,0,Low Risk (No Failure)
141.10727007389355,7091.372781470018,15186.945366905862,0.3179760494466215,42562.51700360138,6732.2050772578,10128.347079782006,29149.267593815657,52739.33950211563,103.08749761247947,10.149947551867976,21.38399890002681,7304.8144008351555,581.3639658582725,849.8120493526923,1,High Risk (Failure)
81.53220273665724,6752.803655583338,26155.66936752064,0.7165271762214047,56055.888914511226,21511.736559219593,3767.4281350225315,46473.63573899758,38400.87872039294,124.9473062885917,11.255064629335706,22.72709483171461,8943.23738381178,1736.4166733610841,1417.46365032338,0,Low Risk (No Failure)
171.42876912577717,12940.682360117053,26061.070054464264,0.09690843467781107,58524.15551289871,13386.085162505908,2361.331567338144,21048.82388708301,14333.840398818997,177.41986908198606,8.192817835071345,22.387366570495647,6469.9161761536425,553.1753554278188,653.2355813019442,0,Low Risk (No Failure)
124.55695504431993,10825.233927886276,31053.960236371055,0.9269406231201087,15323.6830203537,6871.221262139078,4033.8219316649743,49287.455216495124,38217.513362287355,105.24581570939917,10.241026998460818,18.570413663988955,7310.743748903607,1941.7734281560727,1159.3083110390075,0,Low Risk (No Failure)
170.79885226707603,3885.390559238506,16100.106217250941,0.0071300202210060615,37018.58882265909,8586.931107446006,14821.905977379978,51481.47424183998,51452.95031479348,118.23603851037103,10.367645225204454,21.26974066055697,4046.5419601039966,602.7655482880523,685.6839378557584,1,High Risk (Failure)
68.18166103073611,17631.261152838324,10838.88941609674,0.26971700408253885,55504.3565158403,29431.28488098196,9372.909068016852,52656.172717116955,59198.010664742855,201.49507967723423,8.278682267252897,20.943022729095105,6762.210116594527,1026.2886128300338,945.0645422977523,1,High Risk (Failure)
65.86742830936687,6901.822141624707,31435.920186669227,0.4303926180160754,19244.58434932975,17456.61248237545,14375.141930236434,11078.993773485037,21885.882952905864,138.3088253615625,9.087118337881073,23.30904518546612,8629.568877775258,1338.0379466830848,1312.9207449497417,1,High Risk (Failure)
211.43304210406487,1927.8393441854168,31459.62772298389,0.9574915578709515,42423.679664614465,17971.67299449426,14238.316195297326,33921.80914408834,50665.0097800793,128.11903514164013,9.588981539147817,18.186181324611102,5235.790636763011,725.0842545523345,1449.9975694873153,1,High Risk (Failure)
98.50728236114449,21741.86875099636,15209.522128945744,0.8848296951456717,33094.17372349485,12962.850938506966,11406.634410418721,49967.34909472168,62683.5534580139,213.0331951178336,9.862228869755024,23.275545460460133,6570.827959143515,937.1328633045869,925.9186166667037,0,Low Risk (No Failure)
153.79677312268757,20222.933841405305,15168.086598110789,0.4585487714794001,50198.778828063325,17443.973477547537,12465.679848874091,33922.21931054893,18774.06439549974,270.0220449431281,9.387900953769208,23.850090665450914,8026.732238968779,859.0097613362735,893.0473982884289,1,High Risk (Failure)
133.87458301009906,2656.8488609565693,13769.885475279003,0.3683165056261255,30651.434231366256,10204.621950213528,4212.5508880070865,12771.936256528194,22593.126505350287,222.1497193612864,9.979764000847673,21.65174478268453,9707.483169354953,1027.7539967562288,1325.3792134939151,1,High Risk (Failure)
93.36168229717373,10628.020361412697,22228.111407712615,0.6276247009230531,57398.83524760784,27272.752418053435,8158.644714418942,15762.208712883075,17854.00047801407,106.46849026353694,10.06246512870351,24.102328157292284,3653.3750104310284,542.552887948526,1272.3842333347593,1,High Risk (Failure)
205.48043110991878,5957.4019134599885,7670.483742016886,0.5460067515335875,38306.47801386488,13891.964100774563,2492.3056190590705,56857.93859456014,21654.50040392268,193.67787192053282,8.63779350268209,19.400557154783687,5820.811911286554,1113.580764431646,1135.760969879284,0,Low Risk (No Failure)
131.4762349924225,6401.103210693467,21764.517047549645,0.8685756320374538,20645.94250806271,14661.216462090577,11856.235547888706,14249.439683956934,16111.489852182503,206.49617365493674,10.318946250256172,21.15854365696117,3946.9169888676424,1587.0672736528231,1424.0753615900182,0,Low Risk (No Failure)
207.10271571430678,11054.844075841424,23889.23702697372,0.8690471024768169,22225.30700136793,20017.222296489577,3500.9878681981113,56375.68147241798,48457.358982459664,248.09795369597225,8.724754755951167,18.31365300330576,8622.713452729029,685.7236087763907,1299.0013198496779,1,High Risk (Failure)
175.2058458473719,24867.103658961107,28824.881265128286,0.03319648610546988,47025.02296435554,21449.364381630297,13361.259398674567,55635.088298570015,58228.9647781777,161.45704546714072,11.951042496999534,22.57223456784859,3473.557918964268,1772.329540205772,744.692442189366,1,High Risk (Failure)
217.8608196734155,13646.043926360066,29939.72213855749,0.5213947362629351,22209.213947799544,25374.984746140002,7979.460641616479,67832.35633874565,17279.12002487295,176.1394558709552,10.363588029870451,24.469967261698258,3865.1848127784506,1748.4014840970835,699.9546197052778,1,High Risk (Failure)
78.93379054774198,16408.858643861662,34034.364109745686,0.6078796438735548,18383.844939431063,29260.07001707267,13112.393801270298,43969.34690833879,16657.078584849645,130.8769580455169,10.734586927869106,23.838704459401967,9236.098989053795,659.8677121335138,866.6684227870342,1,High Risk (Failure)
69.00852410909397,29317.239353626894,5607.086979198513,0.6795541191072888,32373.057005327657,9061.765915355998,14113.821903099783,30280.731262828296,33025.428612123185,163.30283233528255,10.549495633707787,22.390740681009643,7947.380968859598,1710.27334052371,718.1049312189494,1,High Risk (Failure)
81.50634831023588,8317.359583648613,34461.338683591515,0.028518493911292575,55782.3857815209,18317.582676292786,3795.100161085012,24152.902140628386,65587.02487882234,109.35769324205951,10.079681108388584,22.740767661837832,9907.69662831612,1884.1769284746401,1313.797273923934,1,High Risk (Failure)
203.67434349564616,12311.915906681219,13365.12750732825,0.09516390008021502,58829.01427892603,12240.93696879596,12966.762769082916,41721.59946108595,41386.21028359656,201.87472368150887,9.394309136468285,23.826137952006718,4586.005367078196,1437.153201507002,1482.1277279575756,0,Low Risk (No Failure)
176.8398703247314,24483.867331955036,29400.29987135325,0.2713690150250564,19111.278178899454,25035.76015613293,4922.8922810254335,30066.6325522654,65605.3778633564,159.46943221272517,8.157094799098314,19.073701660767604,7165.80840381037,828.5659788109297,1426.5135661610757,0,Low Risk (No Failure)
141.93488932788495,1609.2655526044616,20394.24504539831,0.7492903605492502,17043.457023766667,6203.155690371274,7941.0939261865515,24067.030465677424,15789.226422973032,148.71224984476754,8.461514438415616,21.3442020699548,8327.583732322328,1938.724703449026,1393.5023559945575,1,High Risk (Failure)
62.59206357431475,28567.225012002604,30416.284627201658,0.9950517532750057,57644.57701360929,9552.023331256372,14350.371101409344,63232.70336391121,33657.095314936,184.59513976206892,10.186561902823197,19.187476628426126,6331.952744717839,1075.801761658763,1405.376327493043,0,Low Risk (No Failure)
174.79439849790595,5694.972691518394,21272.30386034926,0.4823614164647395,23004.178509040263,20993.59698708365,11088.630488605224,67351.22985258656,52885.21424236265,146.01588042327356,9.732436696246477,22.7332695565155,9675.448452654337,1194.1128406182945,1043.6381934642577,0,Low Risk (No Failure)
213.8481171420106,7595.999367879189,21838.265445686364,0.23877500831956,26992.942675979924,28143.474693333275,6500.032202470927,66005.15869763296,44355.28303114933,204.0816343137838,10.148260640337146,20.77775958871215,7102.804992908899,647.6184388611852,548.3410004335758,0,Low Risk (No Failure)
201.93382788241877,12229.471095096002,11043.844873794813,0.20221508745897332,50869.46881803054,25168.618586806304,13547.174832896933,45170.32360796783,37103.61503746876,250.846803417835,10.784062977254813,19.37169366250184,5314.825704018329,1137.1314023658326,1370.0499953341905,1,High Risk (Failure)
153.85735410807587,17301.215596073656,13282.25408208231,0.32461724231147737,22839.06789044173,5778.710866173493,12972.990767304016,37992.96451445065,46591.54363222941,241.9594045932826,9.813718802630836,23.79058020086207,6686.090621854379,1337.13839506672,848.8102668392269,1,High Risk (Failure)
68.22813015748005,5347.36834416705,27099.702056563714,0.8349740733648903,55498.49339082859,28407.715909832263,11986.453045718508,12404.559810569635,26830.484483530327,228.830024920179,10.779564275239824,20.906905255909976,6133.980942591725,581.543727618129,920.2383241091522,1,High Risk (Failure)
113.90332668337709,6606.837774749513,14412.057765339618,0.23453087198527423,38888.534282988025,15541.350170545962,9093.35703299236,33338.68729315401,68041.38007913248,213.2555809233325,8.68903017161073,21.353055038567007,9779.64651107845,1033.3939189667462,558.9651060355469,1,High Risk (Failure)
196.9113750140063,9250.84683253088,7717.5607263830525,0.505810683519715,50337.04024539989,8271.102602506508,3353.0704517248873,30795.77375582221,22762.732290043103,155.7533600557256,11.40454150202281,18.700465470725494,4407.323383642251,515.7810625141354,940.7984244365243,1,High Risk (Failure)
87.15654857230771,1442.680349734863,18274.12780980555,0.2426943984557346,26347.69975493337,7698.271381567554,9264.699221494693,46352.48785411341,17965.258602655624,219.92666606551472,8.684130584974797,21.359513529355546,5130.555566144144,750.8508350102172,1313.6977815386208,0,Low Risk (No Failure)
73.53046049555806,24498.795674576642,30682.85996709151,0.8822695165695014,49151.446705781986,27973.651886802727,1125.5147044606786,26324.449361404953,32567.78203600001,158.70884577175417,11.946250120340995,23.85869232039169,8210.753594322447,1858.7096895855755,732.9130990460122,0,Low Risk (No Failure)
139.71131463250225,2528.5839057497305,5828.954985677919,0.9374671878137444,55755.58359196413,10747.337264201975,2631.4594882897686,68931.74170249482,45858.5462299592,151.09212306833703,9.241749606212652,24.696078725860026,4844.679455855801,1671.770226493364,618.5491225528884,1,High Risk (Failure)
203.53764159241234,2850.0421313543384,27879.60469734453,0.9128586899643873,19745.953350423875,13671.546766182104,11051.595494374404,45926.98713863522,29352.684507143695,149.23236750478796,9.332549618549477,18.470273114921003,9190.104077714712,1832.2070962060732,574.3663140853691,1,High Risk (Failure)
86.85033530336457,4644.1732218079,32972.833489364464,0.6659300312206798,22993.630194493315,18745.978028768215,2218.164161302797,31849.156270868058,35698.41879465466,285.54896458862277,9.3790628499194,22.88985193763943,4349.092044323454,1234.3519964690179,1282.051003410355,0,Low Risk (No Failure)
85.27277165365568,28811.70110321601,34383.52289338471,0.6327103099661927,20800.727424673685,10715.526450736128,8358.61836528057,63949.2511989103,34800.12681097634,122.80999401662226,9.277376960110782,21.543095302071027,7150.504776087848,1631.5213540185287,679.4756907093353,1,High Risk (Failure)
216.12461096782923,25231.55058897225,16143.01851940197,0.38064614669745733,53306.07555776442,22970.73216929657,1494.4325203283706,38538.17183855659,32012.106673255235,244.46239625268905,9.875669455903218,22.42946756246762,8499.905997453074,1629.6408807968944,873.7621126367882,0,Low Risk (No Failure)
135.75548332489052,28502.71703087865,21969.346471543657,0.39366341405564076,27678.866025378327,25213.29189430716,13465.005048368745,69608.33657545772,35443.00810984845,140.53924946931778,10.32882359866415,22.160312626620865,9836.112486400285,1448.3304921189056,1295.4498218751573,1,High Risk (Failure)
195.02070579694865,6930.020374678881,20610.390106147224,0.05307278217136713,53296.19683357837,5399.928676018527,7842.617740511959,22825.26738782215,27177.784783124618,210.09729405450972,8.600871790285842,18.057183019264492,3101.4453237827265,1136.643616724904,767.1693027370134,0,Low Risk (No Failure)
107.60775221101129,23294.16124091365,24047.427059361926,0.2273024072385238,58307.11472521676,21250.842105926215,10824.178476043418,57895.71123760828,14336.858125978544,121.56002817914542,9.696772279244062,22.033318289421246,7957.973712055415,595.1076713246553,974.5707303675116,1,High Risk (Failure)
127.42792809479967,3875.237256051094,23262.74975388659,0.19582504885515772,53726.78511221781,21027.79441174199,13761.821534099348,61764.40261947046,10151.763807685877,233.9045507127291,9.856073728903239,19.081030139439086,8938.503048847995,1655.9476508098116,1109.3732661473082,1,High Risk (Failure)
77.48227364953942,28444.980947392756,34474.47953183321,0.6817359520656108,42924.86963676965,14782.458399576719,5358.567883879057,25659.628924493678,44818.56398177538,134.93681812589782,11.900024239077595,19.73574988767655,8480.849968288272,1907.150227619474,1329.746844704076,1,High Risk (Failure)
65.19095136754991,13681.16779909391,31294.568392620964,0.11488309107878891,23657.24315509124,21126.050306019817,1270.9950320566945,56107.58369593783,35162.27612270933,258.67296174199873,8.802664347724926,21.601182882915484,6501.109959177661,1981.8629560188667,1337.4796086182726,0,Low Risk (No Failure)
121.8891587283008,22158.592827824934,7264.337432720869,0.1154336399835092,20913.701781356795,7536.087426044614,10470.896587927044,44073.29824764573,36584.90092740703,203.19815576155264,10.666012240997489,23.337525764818576,4439.35133978504,1293.9874576954958,970.6273625122561,0,Low Risk (No Failure)
64.81661955381102,18567.02519141019,7569.925821409187,0.3978155951222587,37128.608254687206,6818.788131915794,8975.472212045815,65111.82710714708,38645.829535177894,203.98070565880082,9.98547925199144,23.935672002411422,8638.700864525,925.781407424859,685.4625096855582,0,Low Risk (No Failure)
155.23405346029995,9239.020327595557,11359.445623977841,0.5035585463255224,33363.06913661689,23923.15969068701,1631.9890340696643,42882.76924979686,31184.481256590065,270.64054301198655,10.711377990089785,23.84473401450493,7469.738256927643,1884.5200126489908,989.9227030585926,0,Low Risk (No Failure)
188.00055708218903,7624.349716944184,20552.226342037276,0.8709206608498986,45232.888731201034,19384.2050544448,12050.794322356964,17046.842895633003,48550.2443683543,234.35628510006657,8.27212211185409,18.735085893932567,3266.5049505957777,986.0849591354604,1048.2496506918624,1,High Risk (Failure)
165.4472656211572,6389.129611394934,26367.46675532042,0.516848456307926,59311.38252621973,14807.136441600664,2810.2462293501853,59473.349487186075,51844.496442991694,252.4306182230097,11.732241344452639,18.35824534025177,6917.292642656763,1461.727030334229,752.516992787773,0,Low Risk (No Failure)
108.38712180456582,12255.522246286415,30780.806742584642,0.8554675291161055,59215.21628669115,24469.51373442664,4440.5275935966265,64674.922590671755,19304.929334367647,184.30091876921315,8.093457207332985,22.14988186772762,5552.235263154438,1875.7777568336853,1427.0031172350373,0,Low Risk (No Failure)
155.88833858231004,24302.711527966403,27586.08333510712,0.13538204330945602,24185.502805114396,5089.160816989864,6855.194173577954,66589.09895266045,39207.43746583763,264.7954700236673,10.563089520206232,24.643621053873666,4979.814163625177,1902.4952235361259,617.3123257137083,0,Low Risk (No Failure)
116.77309688690602,6403.186519037472,30056.517818263066,0.17877628755048713,53874.156643406044,26487.431274136994,9040.626976023028,60604.4375123587,61609.8662322267,241.22225663938502,11.509697964653286,24.814323264305116,5296.069124317404,1502.9461216917955,1385.0662351494911,0,Low Risk (No Failure)
109.22865431647176,17193.149849536436,11152.812611708297,0.06222269537884273,20733.698346069905,11483.118974812169,13870.776026611757,36873.949746267244,32078.966942022824,228.91863142318854,9.236128566204892,18.067565395056974,5368.47658662543,690.8349577407625,1028.4725081084275,0,Low Risk (No Failure)
147.26909910510489,27413.902389581486,21933.255249614398,0.07741167422529305,41414.346735305524,15162.042507875307,1358.0958447246812,16204.902566166935,40036.52102320595,191.9616266199741,10.543157623864122,24.40168633740472,5852.8023104934655,1247.7289206217579,1487.729446526484,1,High Risk (Failure)
62.91549210424796,11061.809560949989,32134.21781843863,0.624400487472163,33728.444742016305,24737.554402884816,6886.102524592576,54331.416092974665,45935.40676066315,237.84814439359155,11.567628704028618,19.833826848974354,6000.709385809015,1087.8527089529452,746.8414883546321,1,High Risk (Failure)
123.62950630928876,2935.757390671951,20612.26294047796,0.481560967777346,24659.012129539005,28908.27999759851,8309.112703460954,61059.271330520794,41901.64741356422,152.41421315576105,8.709704263422108,24.581331858139936,6550.3894891150285,1092.4540261961342,1397.0411245705486,0,Low Risk (No Failure)
180.39493401383908,10871.160292648925,10680.431708895758,0.898273065110127,23797.61655884491,7589.463786769858,10923.612211943155,54720.33357999192,44964.335884887165,136.3394481244534,8.227893707599309,23.061006678924972,8150.784067751706,1113.7034663318946,1357.63061721762,0,Low Risk (No Failure)
173.30753418324505,5223.230754457279,24202.7118975851,0.6456853251742407,57013.32498148788,17013.9838575189,3030.0570687845925,60706.094738861524,54683.39148569844,189.2117663338919,8.35407938933531,22.12198468987898,4150.743307781831,1225.3085766458194,1305.861103444396,1,High Risk (Failure)
106.97469508231893,9842.190607166842,18540.10175462292,0.07991510934660673,29763.564805372494,20577.987202367112,8073.143704521933,45266.031713672935,19637.21244532255,241.22942514787235,11.81809203918428,23.506933736410613,5844.751191684636,813.5587674297572,557.2681916646812,1,High Risk (Failure)
102.49325327337698,23098.94891013248,28917.770769443225,0.015499916690321025,31494.79221749656,22468.497683248726,12221.344807631816,51995.931139186825,61983.7348125138,143.14597985003923,8.085302863442063,21.661391095066904,3420.2825989257394,1068.854011944456,542.091328173588,1,High Risk (Failure)
176.1151213421376,14455.577105771043,13205.085974891212,0.1861321543680995,26295.278044846797,25271.524237969785,9631.653648092544,15410.42941492275,12822.619871720135,228.78924774012953,10.336847555406266,23.728223482917258,4156.079106526175,1208.8206425926367,1091.8213609592567,1,High Risk (Failure)
88.22191784099573,13529.951266931914,12662.848431382714,0.12766663498230535,46561.643777967656,8533.9310783026,2489.1343673177785,12460.646407058828,29571.827128398927,289.60436758163837,10.547058744266296,20.773006964948635,6844.819869337751,1628.1306442671962,592.6785611667988,1,High Risk (Failure)
146.44462290998737,15848.67828415402,28040.973627622472,0.7418704850969559,50888.559634872254,6613.502612050885,12558.138272027103,48975.62704800661,25679.529510663633,193.18752697666105,10.328269247965064,18.602318789941684,3145.0924229262223,1128.412603834167,689.0711456102275,0,Low Risk (No Failure)
156.30774896242104,6521.991384722396,17331.27696262792,0.3890607096186526,41432.37858414633,7976.568621563674,2611.319694617674,60248.00136534045,65148.8393925298,123.48320893301113,9.827725283805846,19.01968232264662,7782.029667138258,661.7854716843644,1001.3227277198118,1,High Risk (Failure)
122.96885377701048,6238.992160643938,34476.46284618798,0.8332292639878056,28606.44265755301,12508.615706290286,6125.791953374232,41263.35811793365,62482.294666095215,172.16744700771417,9.901824412020845,21.430487974114193,7178.402123435268,1768.2208669015097,982.6950598935923,0,Low Risk (No Failure)
130.32187018126564,14321.03429501186,9451.56134652433,0.7394114554566915,49862.49743915598,5473.728883620236,8293.775274829757,42610.494901585116,15570.752687434406,162.9925092421228,10.26761272852268,20.732774993112468,3671.376743837872,648.5491855556941,1021.0769230149662,1,High Risk (Failure)
158.23524901203723,11041.715472849985,10232.31629649245,0.07102765800128108,48953.565445348,25630.458910073547,13278.849556203959,40347.73745522894,61635.83064217634,210.98967541235535,8.142890855257422,18.227033242379825,4279.023774558271,1665.4724598749126,713.0252031538496,0,Low Risk (No Failure)
151.88601201443376,27652.110033831465,11803.086600522996,0.749621155563643,58499.249850695065,25885.146972076556,12306.12561966237,47210.95789112866,49112.80430038432,218.88714018928022,9.10022129446278,20.756391726115186,6353.930820638736,999.3674498577312,1259.0121449559074,0,Low Risk (No Failure)
154.53332169104172,21893.24550241993,9310.748217852019,0.9978847082284605,52556.80823827427,15201.074970451798,12587.312338734826,46724.607077524684,66737.30866689299,272.61532546942885,8.743080576897375,19.123642248763048,6571.753209315216,956.3542080925051,864.6625461942444,1,High Risk (Failure)
74.3802962777857,14369.97347483655,21261.061565183547,0.38010599871580397,58457.698053530476,8709.634087491002,2214.210419601094,15441.605451600088,32440.33692891947,250.53315601287494,11.844875721662042,19.007032606847183,3600.2282514501912,1825.8065249242877,954.4212862289887,0,Low Risk (No Failure)
61.1171619008557,23214.751086059598,30782.67772583913,0.8798199767054522,28451.36216778346,7741.675974418826,1642.811907774479,19100.788438332595,17819.440467278135,288.0891602314017,10.213773484187827,18.81507788776555,9073.972601032543,1870.4655932378,1248.070891113412,0,Low Risk (No Failure)
117.77195621456596,9733.611573777915,16651.006330146425,0.7261811220000153,42614.73633341972,17273.03946195728,12398.926093455757,16231.058465927665,29122.71662168228,226.29971105113307,9.314208261829945,18.77331160739238,8647.983997157027,1257.4995900033387,1335.349390644085,0,Low Risk (No Failure)
198.16760360232723,28881.10975755063,6924.057567121497,0.5261427596891464,47101.53991038317,24996.455543822278,8080.166528457484,57126.59373611551,15939.413364785112,107.02777205644655,10.348015022648472,19.22450092969895,6854.689377584589,1174.2761659608386,683.812045690718,1,High Risk (Failure)
167.74918933198677,16356.474835651266,28574.01395563923,0.3928077169525388,23554.234035963666,22521.36194522912,6520.041820445925,14725.814439204976,36737.60614921262,224.96864218674068,11.430240393349193,20.78211419944447,7510.968466445103,1564.7862086398775,1418.3524917390005,1,High Risk (Failure)
190.55151023497876,28013.221220648855,31679.141714846555,0.0171220857971619,16313.587822251064,12461.575918636921,14571.184074258526,69944.95515231689,13161.449533212792,153.56118976393205,8.642639351314445,24.929313253108713,6016.796096765693,1115.7270415567186,1182.3590981205425,1,High Risk (Failure)
142.7914162808066,2464.716654136182,14436.382928100727,0.023052783445210112,50321.04695028281,9511.417919542022,11341.953403604313,14056.121876746274,49749.95567575787,209.94727035925155,10.765279315281559,19.82137446746953,9024.564799863852,511.58024193953514,687.5693013205096,1,High Risk (Failure)
215.6816887603913,17915.91019734193,26203.715131904435,0.14760681915758866,25263.372274880567,16940.339242777412,12899.150350580449,65769.47152265307,37687.667741301215,242.75285355935574,8.281582394934867,23.12038903467023,4734.759483295355,1865.16295692576,945.7311477374176,1,High Risk (Failure)
94.39046057452109,25653.849305866068,25050.821063521824,0.511515136083225,55935.4614857288,12477.217931096166,3123.39922282935,62156.86710191049,61214.76064401059,209.87749001958332,8.27269049774241,21.13089590634146,8289.374888821589,703.712274475891,847.7640247280876,1,High Risk (Failure)
130.506381347887,13380.254298452805,10782.305216371053,0.71840627769836,45788.89845636063,11512.561286351629,12805.576654377144,25795.170507052928,60780.597289544916,236.95849706158734,10.123772958717318,20.245613292241984,7987.521254971927,609.6215241919306,1090.7695497429704,0,Low Risk (No Failure)
76.17962817964644,2858.746620049089,19158.120972658828,0.7247094874643776,53042.41264166079,16053.268556759502,1403.6924651058678,20234.161413115864,18825.643083811745,194.742683029769,8.604000543609644,19.335777494851907,6814.348322871167,636.65578245423,970.6117971613364,1,High Risk (Failure)
201.7749496501133,17112.897485789683,7833.711538061575,0.11583465834136975,39030.419278823516,19744.276141360315,2409.810046756808,53066.04008211844,37094.00283664988,167.79436351538357,9.874007737449835,18.34738610178825,6873.159821656172,1098.5196883411122,834.5375818072519,0,Low Risk (No Failure)
156.58195208950002,10753.06909764371,13237.1808703879,0.8890865833268656,55749.67267217622,20075.521207178048,3950.0362405430487,12945.118736031429,46957.872545823375,144.80413352224042,9.946792551529791,21.273693905963828,9268.980296269143,1197.8428214219302,1257.0373561858398,0,Low Risk (No Failure)
81.63477019405676,15123.465174970945,6203.497348655464,0.6109276227880288,38832.21843296825,9224.610238988982,4822.739323735321,47318.19015442027,36792.76912586138,125.15619448438713,8.325035232634415,24.496221067012506,3361.9813915276354,1322.9994237773012,982.1394112686147,0,Low Risk (No Failure)
148.43313211496724,8946.341631180878,7248.320380954905,0.01832616854519864,15162.713779720547,10211.819472517895,7047.845589105861,17854.41621084244,36994.50814210401,135.06779720745234,8.011726653586074,18.889030321071925,3508.993396601804,983.737339172301,556.0864451318727,1,High Risk (Failure)
115.03322984922968,17130.85542674741,28047.433329389492,0.7491049613997478,42421.03682675966,11981.83485250087,4040.65819156258,52404.87421457531,42871.88499370414,133.65145374730278,10.87510609810472,18.103792329093878,3364.0171212453033,906.6886885875463,1367.3762134469393,0,Low Risk (No Failure)
178.86103898687026,12491.173057675773,33134.50895697686,0.8742720265915166,23212.60003502587,20340.158451234223,6675.44616412424,37019.17605252163,64588.40309601157,143.04128433123685,8.78998289878514,21.8602007353097,7634.798882565433,1662.348671296596,1430.877528111916,0,Low Risk (No Failure)
70.63101509692399,28427.466793245367,28209.099350172823,0.22781029067613146,20913.241731245867,5300.128334217667,3086.5589079357455,28680.283365739706,62962.88146519518,292.4884392712537,9.923194515562232,22.803352760831622,8254.277788181662,1249.0527491300454,863.2194466133926,1,High Risk (Failure)
215.87111101061714,27746.925489023957,27313.02042120632,0.32667810380951223,26477.67536112637,5687.151157192595,9808.5403640792,22612.312976827558,42838.14652132925,233.43833622399546,9.373528483709016,18.21099235295858,5042.753766398282,1906.7339363921378,615.3858071342489,1,High Risk (Failure)
208.8952343430266,22588.82286728906,29991.708237926407,0.9008369802823235,45448.2574262835,21131.855741636547,14348.947381853182,67190.7770075555,59194.861029914544,105.82915595087523,10.607619843131484,24.143909876335464,4003.9296838023947,710.4148375626919,820.9164571603413,1,High Risk (Failure)
103.6198401173654,1263.8472571425038,8783.08087962228,0.16095548745672916,56344.40446624018,24749.317784140287,14335.2086797033,32066.567959110802,25637.021678128243,233.71890269233626,10.100199003952385,23.064129047678747,9672.949764961562,931.8679716859165,1077.058270825001,1,High Risk (Failure)
217.45335507188722,10665.695936245225,7669.266076080152,0.12778295457384325,36168.60642201644,21327.18127390938,14462.10965622864,48554.477541195374,64019.147299803655,220.16699935053833,8.983988533546434,18.75033631201552,3868.5530335997646,801.3717903665913,1024.0489287058554,1,High Risk (Failure)
112.39957634846634,11138.817565423942,33353.52522027638,0.2884583504181284,20359.244858403974,21051.33119139724,9519.19227377368,47590.5328190156,60838.05184776528,293.9160708093639,10.805518448691661,20.736812463492814,7463.841960559698,1791.479776578762,1357.2989620831468,1,High Risk (Failure)
146.39314084488953,22934.325587565396,34585.40934826086,0.6484239317715788,58656.928316627476,17479.49391271165,13559.789698125656,58973.61791685158,28364.890585139943,223.0069550937333,8.503127999216044,23.155687161257156,9350.798308244335,1994.341314976626,1287.134345195103,1,High Risk (Failure)
181.25537767429904,10177.25679535807,22398.859416053332,0.9372620447778404,44302.57751071877,23652.031670783155,5571.809454342348,18099.219322450474,67918.92554313838,242.4023497013525,11.828480121045235,18.07562052747314,6040.50973304456,551.4168859054827,728.4980603904418,1,High Risk (Failure)
78.98300251865285,17942.518876119826,29946.049173406256,0.39751575154123553,45842.786065929235,25235.56344240107,2328.978039548203,29393.429656216194,53216.31416706492,194.3075419935739,8.039526082475753,19.043616500106566,8361.577203159843,520.090171850596,1178.4683995688592,0,Low Risk (No Failure)
194.13259275378206,16332.512276637526,17382.89218246381,0.5349667056654044,51852.67684401024,26497.396506496993,7928.524503232458,43895.065298992486,33757.333073454414,108.43104407019068,10.913154747201725,22.25189783184174,9354.593971410186,1009.6239742621592,645.646291925983,1,High Risk (Failure)
171.223128647615,14650.328985240785,17426.016629139303,0.16291610476529073,43373.264334629916,22361.905735416585,9229.831350337256,67181.82510779417,47108.69765541619,282.8977874027855,8.367852330566851,20.190984209007922,8737.178507207473,1062.2557806811226,1342.0573087367015,1,High Risk (Failure)
69.62277481612563,12784.625753046383,13221.626222886433,0.8147686813470248,23730.081648684587,10451.564321351749,14872.283416235432,62934.62803413675,11272.548114792353,269.67150852593386,11.225937289868142,22.354998955468776,4961.544611349387,714.4890799127066,844.306942048876,1,High Risk (Failure)
177.2800171556197,12930.9170210535,29089.760536014586,0.5717373111603222,31521.44216904332,7732.185948824164,4731.924798590542,22449.591208290745,36784.4318803612,276.17100564545177,9.255277003859215,20.27511474112057,8987.376419953813,1934.541642014448,1236.3367723029942,0,Low Risk (No Failure)
130.45174693893586,24326.858009993317,19191.05375251101,0.08346929518195723,55424.49088611162,26489.80978118463,4224.470435305113,61423.27914837972,50305.58070426521,158.6067492692905,10.207965225247069,22.963550951424082,4094.1800464417747,1672.863003318252,616.1291783494898,1,High Risk (Failure)
166.1873864580237,23948.01071506734,16721.523267638724,0.8838761119858818,58520.20278171126,15490.050523353226,11855.841295182887,10920.356765095825,38202.236496408485,284.9742683307738,8.177916126186723,20.291766886613786,5206.711495582098,1158.8372339594507,1379.8225367722,1,High Risk (Failure)
142.00042380325306,16086.68418398961,28789.80954177534,0.6736624198934342,32029.71396218023,22830.978800504996,7442.59082978588,48483.36496067652,44661.18052103351,183.08369098242576,11.4752556833536,20.263633451935497,8374.183124040452,1275.2665206217225,901.2032742781797,1,High Risk (Failure)
182.81082056286692,22819.867763148268,13719.509880961052,0.192518871819798,47955.70813415541,6452.416349754748,1412.351924962024,30227.375351536317,12549.539375143195,149.67731160178562,9.830530696872454,24.0258629440694,8581.782684812693,966.0534727832473,1025.132267121614,1,High Risk (Failure)
204.46319923071795,2336.00592058856,8339.429644326505,0.7287092484753526,23240.5556903033,5643.303074564369,10408.35030967858,28752.31798001973,28611.182633983946,198.42326097240783,9.71221143822883,21.294022162510814,6763.038864455317,1375.2208528049423,782.6220534281473,1,High Risk (Failure)
189.68853292509326,23265.173913715793,21326.000063408836,0.3743255646128538,55998.31906079156,19741.607659614234,14251.102514586324,65124.816087977495,39487.349526794715,207.8703603356467,10.360140216147927,20.104543654868333,5672.762783314691,1682.4489834265648,918.7620141519078,1,High Risk (Failure)
94.56503046289156,17398.234616149137,28283.497952405018,0.0863182734861645,45575.43648224636,6261.5575808307185,14340.910009776146,24216.844662696385,24078.69413784492,187.13009231701486,10.94920238530547,22.939572481628456,3279.8810738901493,1275.3562701159863,881.9436175584649,0,Low Risk (No Failure)
137.0150642616518,29842.363443851216,9939.640647680888,0.5243754866553567,59282.68075734351,24490.528398384737,12881.783413216386,23287.13506101034,29513.901260691026,117.20330850740208,10.663379873054195,23.571924820886466,8268.186369271665,1945.5090711972612,716.3910201315155,1,High Risk (Failure)
191.13997912762318,14351.199094576177,15882.099439174508,0.9303314331964551,27281.348133195024,14557.42730940004,7855.325409968796,48401.50289291278,18154.813062883826,196.35953208482636,10.37015260291978,19.347261585370916,4731.562049302006,1368.9600368167348,1387.4908251659645,0,Low Risk (No Failure)
217.23832654566175,24462.001956969907,24319.938608914206,0.6005576560606293,21279.9572053604,20509.5487441408,14492.123361137841,51624.75412573215,49691.353070034515,146.13966225843785,11.505589575118355,18.49719600167938,3661.2744534882827,746.3282468603869,579.3439437878583,0,Low Risk (No Failure)
82.71551836175902,16031.39376815488,5409.79650305876,0.8315453313427965,47544.00642269492,18579.4468718544,6762.712153543501,53994.00387405666,36313.39183595331,260.8791603067888,9.062472158804944,23.663303723222835,6525.960579492903,1145.6226730390636,732.8519773125806,1,High Risk (Failure)
171.59543386708538,2459.365055105254,16034.966729628692,0.5657279113442923,45882.90431776692,10500.998096365529,7754.807938160614,35390.363753295394,35944.458927597734,273.6047442047968,10.555329562920768,20.09144897691083,9950.673242953722,1745.8868463214862,1144.3011938862273,1,High Risk (Failure)
99.49181907230437,27155.5671272986,12832.003996859876,0.7564838490999165,49846.21737817147,16312.496270499523,3415.0778007332165,64329.7859350505,60335.861658308786,290.0241847659066,8.993087263184316,20.201079800119793,3702.4394972519167,1446.1521253730525,1172.827226991345,1,High Risk (Failure)
207.59990098836732,5748.139778495958,7908.541778801441,0.12223419285452608,42117.73246206109,25191.1531999143,11554.186345594057,26947.34073149293,33201.29009464935,183.4289145209718,11.935521443855992,23.509164251812937,7360.802864086859,1231.247635320242,1287.2144801536947,1,High Risk (Failure)
113.050351850751,2567.3811931420705,27654.291503484244,0.29122932823126424,46201.30965155067,10655.144145091166,3264.162494655574,34864.69899468827,63389.23908217903,174.53427368464503,8.08738435315925,19.777448512866712,4902.269266347607,838.6607653737799,804.7845655908638,1,High Risk (Failure)
187.79427066473193,20606.697990772725,9942.231150898158,0.10671497186837553,48707.50254937836,29852.557080268154,8226.235054029681,34941.29366059818,44873.515832799734,146.67005099045033,10.904545121519288,18.256443891054865,6609.740456653518,1995.9386191386498,781.1212963909718,1,High Risk (Failure)
187.32682710977616,10947.774665110706,17912.657242639005,0.9637676499423089,16227.944279275453,17718.827315653674,2066.140507286431,10649.69803964754,12215.522130767851,241.38819881189767,10.75993937890778,20.47297786802304,5596.085512417465,1629.4733483422553,509.6901143962202,1,High Risk (Failure)
181.76446440032447,6733.018790320139,24263.87440592781,0.563817480575171,33547.78710643252,19072.923003002514,11748.062707498948,63770.0013690959,42950.66152774369,193.20150975499948,9.510203714656978,19.268351045852473,3681.461921281095,712.5681025098272,950.1841473787042,1,High Risk (Failure)
60.23581153380982,12974.424498087184,34029.41278198426,0.018555539069860405,30179.302170435334,14510.895072299549,10866.359869951631,12703.078489943055,30941.924140360923,243.494953465691,8.09373959314982,22.702970964794588,3750.607507258982,641.9806337646007,1112.4913137723906,1,High Risk (Failure)
152.797405988501,10296.333506466812,25695.23850307893,0.6217593860953973,47237.39510482102,26370.27890793203,2239.2876959979744,28087.312389918898,55586.241851270664,201.57420952617613,9.453891959311111,18.423892799452545,3121.5963145159044,660.6099677339392,1006.324405975447,1,High Risk (Failure)
105.48385486840267,29925.265232553073,21566.452041638884,0.8383990884866921,47661.923431242816,29021.8589005318,2694.0704717891485,40870.23513420009,43066.0363605745,262.26722390717396,11.528483886442814,19.644419559674763,5350.049412347587,511.03193744224063,621.0560940959996,1,High Risk (Failure)
160.98218015956206,18336.432388643905,12852.586071110709,0.8926561953354805,59564.67425370895,17435.821690826902,1649.9797136848408,55469.83824602865,12827.89144787835,128.26573432547545,11.708100357266796,18.92390720991359,3434.0673355655517,1156.794793726221,1318.9792084053515,1,High Risk (Failure)
149.5609093821412,20467.828283364113,13225.215725343998,0.6161790816070077,33762.39073219767,25839.507971549083,4075.050032013973,47909.24844188998,28020.988164203438,269.3101103276915,8.662681416630331,21.961687756733685,4453.306087706573,1786.0820544163214,1247.8343705157135,1,High Risk (Failure)
137.52607921280173,11835.858594816542,21588.222445677562,0.43765236472442226,58538.36345123583,19665.8364780846,8681.267940661768,51025.50702591809,53388.618065628514,160.9868330430904,10.334155437934742,20.230141866025818,6523.849223116111,589.8203110858183,746.5064017496173,0,Low Risk (No Failure)
189.883166094422,27219.29615390565,20996.019931071205,0.7223161772939539,50007.44862723416,24477.281344090312,7906.237050341705,67374.6793143278,54850.47833154261,171.3653636936519,11.236964901529927,22.278197953287368,3723.0509561974022,1272.878451445169,1172.1819659232785,1,High Risk (Failure)
164.18361358106785,22166.784413404333,16304.588184439124,0.5486383916955772,32808.92326006178,14870.693791390664,7411.486424699213,23916.028315800082,53580.531690900185,292.62687970168014,8.726627623351511,24.82597293114684,9110.889019974122,805.1863782827156,673.2606369395426,1,High Risk (Failure)
163.4333986620689,7474.406631011467,7169.317243183744,0.342889329596056,26030.357572755456,26318.084445868913,2118.1894359481985,38860.07522282613,38288.490836360535,290.3251320946513,10.432108368058868,22.628594811597043,3373.6427060782526,1334.090780409776,636.7039520008827,1,High Risk (Failure)
203.48246794022802,9297.916231291116,11450.677080685538,0.6850299492691885,33048.11897955521,5779.327057943272,9058.832575823308,44650.97878509637,36394.447479002316,140.99428635272005,8.236805276077622,22.41808877663709,4319.7232692365105,750.9551197831763,1322.476645229501,1,High Risk (Failure)
185.0114969195688,18383.48571880103,12456.08006038509,0.046033136141718556,33866.61442915263,10181.766650461312,10688.187467964768,64707.161409354005,24314.249536657975,158.77929713345716,11.130368304463179,23.011802489687827,5066.659605752175,792.7823832449557,653.3137626350609,1,High Risk (Failure)
189.91139754206134,1627.1827813920197,24161.70226451018,0.22722069409991053,54267.808658847585,20365.640209486126,10900.574982374408,21786.697159550335,68039.51540771955,230.86437414374413,10.343469871924691,23.091917541581896,5035.565762873031,738.5061192666246,1223.275691880482,0,Low Risk (No Failure)
82.21234762390563,10037.934582984817,28303.048140502186,0.6567940046300318,39095.20498413455,27789.82933893612,3145.2475804651745,16042.57481136881,12967.1910605417,248.71036396461804,8.722743810793201,18.612631686809408,5013.240605911189,607.825557287413,990.2314249068211,1,High Risk (Failure)
187.63716213571425,4076.66944849061,9006.747975904505,0.4038871173236047,19969.24364084999,27434.040599261523,4151.640254395907,47515.77383663616,10036.773628316358,216.52956062356452,9.4637979077807,18.092811915993313,8682.638158176362,1713.4423737334896,801.6302292766402,0,Low Risk (No Failure)
186.40486980912982,4819.5765209842975,6106.798667323044,0.6143816397567536,30809.126436983508,29177.908187756195,14611.12118015088,55335.43485226447,25018.539300742807,166.87028823091472,10.934621410662087,20.42953996846004,4669.904984871333,1896.67880829534,1057.1838964455828,1,High Risk (Failure)
215.08840569905584,23221.11871005099,19617.48681036353,0.9535735374122973,24026.281353745813,12778.917918270225,3341.008821797638,49458.13737201097,40549.58881110685,242.6528125239638,8.14203614148688,24.174709965815424,5019.127051473394,1968.4638746297055,543.4389085704149,1,High Risk (Failure)
195.4323666775229,21910.585166038283,25949.399718216802,0.09668971633774304,19644.881615510054,27435.56428070864,10420.93082923597,67817.3566316546,13026.262122356486,219.69692183655238,10.95010039186578,18.788834212568247,4453.551986246514,1064.9827774545993,875.6381660883213,1,High Risk (Failure)
119.927718940733,29801.748429070874,14782.115069813699,0.6045626646042376,43436.59266426558,11903.069583600663,7358.711479109979,43609.929432717625,55721.287743923036,297.36511249647003,8.62243155673356,21.231905577520443,6110.270833917173,1990.884288476631,989.1903316992468,0,Low Risk (No Failure)
206.79773490111845,8168.976138427428,24699.708698685354,0.11776399227661849,59405.54755065373,9986.892127766418,12878.986262185279,19105.696834790513,21394.95117829967,211.6069607280666,10.340667289812075,21.887245411373456,4576.234208212931,1410.4479288356174,1125.56107497137,1,High Risk (Failure)
118.18073638068704,20810.31428596835,22014.892637401765,0.2693458790611043,49843.505300106786,14019.616039788223,13931.46463014998,10917.538844050572,12913.913893606996,202.1209324679602,10.634583818491109,20.59758066577394,9116.987512840918,1939.5950568738886,1244.803564545378,1,High Risk (Failure)
86.9125849226429,3751.6426742796643,20481.524670253784,0.1049903751251351,30337.883478513064,17673.30258489962,13446.576323072237,64887.331797892475,12443.18676229237,297.3044790645084,10.240645153280447,18.01511188524888,7345.223239332627,716.4262919886409,1224.9218030324876,0,Low Risk (No Failure)
152.95206078210867,6773.387072010774,8237.171516689285,0.940746723077666,55509.74260712729,9116.87301292552,3163.532051701347,18617.585972926674,49662.422611255264,152.038928161294,8.073983629722157,18.97769997067623,5670.868174961044,1849.3222101662407,1483.978530063495,0,Low Risk (No Failure)
115.64947326435089,11488.31641265624,33259.23296430771,0.1924110378871393,18586.71327504566,10964.263098642328,9843.529812500508,40870.47268470432,58027.84727283347,125.68293915908791,11.508217693681281,24.7510099182761,9968.317650533547,1789.7810273377813,1044.6237500375037,1,High Risk (Failure)
163.22764646551198,13928.94094498347,10529.940469645739,0.9514994392273525,32296.63540804558,20577.871004069362,6799.206218481986,26907.197225240736,51887.30678159069,207.7658789129855,10.288854015714888,21.851693671210796,7101.010600225056,968.6621345445507,655.3260176233687,1,High Risk (Failure)
154.5428709101187,23302.772861632002,18728.956236355254,0.7861154478031324,53102.643395543746,5631.364042278898,5326.330484786598,64908.77544148608,13462.40177291559,208.79981234960889,11.848717381672675,22.39448669267722,9928.66004115414,965.0293259836276,1241.6944299363229,1,High Risk (Failure)
180.8881821668878,3885.345397315975,20357.06363808872,0.4191050862867066,52284.813380926855,19561.403261739302,6561.78912578785,54223.28477818868,24588.528982980555,106.68659487076569,10.115338679611204,20.097933461224102,6504.365578709761,1529.0368236589024,510.8801128188233,1,High Risk (Failure)
100.45729892001779,19984.014611948423,22671.168218250215,0.49244226086650156,23512.733862076922,26023.550612295636,12604.065500552777,25409.088858395626,57694.19275769736,119.37973828912168,11.840051643037565,18.52982703064149,9622.085307078984,1564.942568396448,1148.5555315260665,0,Low Risk (No Failure)
124.85205770351254,8015.267405160977,16896.176826934523,0.7262425885073709,37253.199773499815,23968.52227372965,6443.136693780491,44923.78382071385,53289.82459440843,251.02713213777542,9.004775623414348,20.512803494940695,7573.008860527007,580.1737808089403,898.3871985863573,0,Low Risk (No Failure)
103.06585135866067,12556.558835315429,34727.524243835374,0.6933970262725346,20758.11738487363,8623.038808453413,13288.964239370345,63619.32160371334,45451.51637887067,161.80084966647607,9.262522432256434,24.179664815638617,3776.0009568863143,1450.3028141030986,1342.7247976696563,0,Low Risk (No Failure)
158.0703331991241,3476.8460014396937,25119.899480062984,0.7449651984608933,28302.64620948807,6099.975763957764,3501.922257849122,21804.74805720715,26423.362184944846,285.1737381773539,11.154996666894142,18.602313931229606,3321.976328496464,1030.217847816596,1479.7350994276262,1,High Risk (Failure)
104.29028924660892,15618.032312704305,27953.345313195496,0.5018981804026647,52807.93340203518,28655.14711787097,4535.113032977732,68036.2973406506,57368.733177459144,194.08431720533218,8.554705352620408,19.064310567702655,3413.9552820381496,711.0713263138464,1054.2807073324793,1,High Risk (Failure)
109.02647189616582,25496.565845200013,19638.729193722465,0.8745795163873424,44736.79125569278,21085.526632439698,7714.6166322742365,17051.86657029826,30010.710681904566,225.5526765397555,10.732639359018012,23.628754654169477,7424.621134335715,1647.2952351528238,1066.244710769925,0,Low Risk (No Failure)
206.7628906524289,18481.418435736025,15545.84124790641,0.2759830336711908,24488.465571510456,23585.572452172994,14245.672579993248,18349.54982032583,35604.20289894838,276.66266069457333,9.258148179374063,21.347159075769866,7174.782344926213,937.361291695854,1157.234405010725,0,Low Risk (No Failure)
143.61225589387922,6470.33514629817,25488.932560660614,0.3552355173305026,15921.530750597969,23241.205210530476,9568.060748406093,27707.81906998099,68512.70323363628,277.93488627885813,8.628200713538337,23.677196793141448,8675.122041064755,1770.1360349943036,1110.1306822336069,1,High Risk (Failure)
207.49987760369868,20090.915745675793,19313.8930218705,0.7438621448859984,58462.099099873456,7160.228994003474,11191.668513773431,32652.763276547637,42209.1545236014,144.50575430516122,11.10074606426758,18.685634373147572,4678.402147547849,749.4433639225949,835.8428161985224,1,High Risk (Failure)
121.11034234446335,21583.766456495203,14286.595082079522,0.8174476505069532,57501.102876519326,23047.833732795894,3623.550248760969,49027.39670826671,49879.37194533632,230.3549273090233,9.600351013758772,21.929018960707396,8043.810313205345,1302.7888117207417,1356.2142092532524,1,High Risk (Failure)
164.0521098155099,22597.771217267746,21974.539785784043,0.9702937327487523,44652.7881152451,25415.230140026877,5309.589049630676,11425.76537308302,21482.960725554258,186.37863241204553,11.851487636779508,20.53734611484123,8018.745093119613,753.7391003335276,612.8763284209442,1,High Risk (Failure)
128.9576352821274,17273.356160620056,19686.827186828174,0.5009968366121956,58578.485491101805,10922.292331533263,7400.490405726202,47934.41102236576,36597.61173399543,147.87078703074786,9.526831456680751,21.011734787119615,9848.191883704527,1736.2107873233363,715.3807979834544,1,High Risk (Failure)
82.87866912845374,18612.408086998912,9582.512950028497,0.6150511655285649,56095.990160263515,15057.779912974936,2508.3913422435494,69560.97712501959,17603.704109541373,154.2238542029629,9.82718313011221,21.102509352371932,6554.409242914024,1692.3903457942513,558.5183471671075,1,High Risk (Failure)
117.47339951723046,17999.2882685619,12769.95363584299,0.26179000110270745,30428.02980969759,11998.087149980503,1958.267711811165,49451.519670131696,41734.70397792685,126.83032291144163,8.754758908096019,19.47195118518953,3535.870217272017,1526.8510000564893,602.8529251509731,0,Low Risk (No Failure)
85.67401828339624,9655.069173285056,30250.753042910113,0.08234649574578634,50031.45731023066,29648.53915555203,1171.2085063298248,16349.811902638601,69841.400678184,106.37180728115361,11.095227438201203,18.629264629112807,5843.25447980806,1544.0789794826042,940.8630303761253,0,Low Risk (No Failure)
156.30105434181155,3581.282311984256,29036.29700730887,0.02898693009375808,28877.176808688084,29773.304073663854,4830.707543350656,23590.6325481699,69925.4528826651,245.22399535384244,11.288205615479576,20.84722313818994,7553.37443082332,1992.1529644527313,1407.510014160477,1,High Risk (Failure)
69.96668770081003,3599.914705834691,17314.793436240252,0.814423567079152,37762.83881065766,17956.994061229823,13368.509091569298,14513.535342467385,43071.834707842245,234.64687949904823,10.55123993794312,18.829590796206954,8979.413251512866,938.6026646213786,1287.397595396601,1,High Risk (Failure)
212.85354984062852,5777.19598635079,11636.645425468974,0.7253912461589445,35201.91504450801,21300.353179223763,3503.993587587161,27633.663989910543,42837.11006177105,150.11717105508427,9.477140372403316,18.159378956357035,7302.125666276296,651.9232742440391,668.9736092247864,1,High Risk (Failure)
208.67648858109663,2093.224322257448,8905.680476024072,0.7809152521545261,34690.43963162142,26917.767066493878,14611.172371600382,61630.37552886418,66307.12502683558,131.67223685611393,8.97248210303569,19.01764113709997,5797.907035191123,567.9043060876952,803.6171977864215,1,High Risk (Failure)
95.93677167039712,29890.51029829452,11868.270084183358,0.7307623018532994,54649.24783725506,16780.458724983066,14289.585185614997,51553.014208527864,27956.59046081871,170.86211684035203,9.913014542030174,20.162925834922838,8188.620504244529,870.1801698925315,1220.27881841616,1,High Risk (Failure)
217.90190985608277,1348.0877909077938,31821.638156116598,0.9451614571778969,41756.93042770401,17900.438585440745,14669.027394838284,34301.289749657815,68184.16493724575,121.57890429886322,11.951284290529053,23.308109364606064,3605.605925746401,1656.4143141368747,894.7457481930373,1,High Risk (Failure)
155.91378234539465,19347.634010399437,22354.197530056572,0.5098776547604066,25654.751763175653,9767.910101030982,3382.909743734365,47744.357971706246,18977.4688154198,210.46434666333678,9.901940458070776,18.44217870431323,9654.469473301768,753.596026245146,740.7799041537033,0,Low Risk (No Failure)
79.1619410910802,18294.048427406502,11433.746879724848,0.2490199621067708,23692.434500479692,17520.78165716505,10052.095926409436,49944.923339166104,40870.07665752759,123.96645918369067,11.54532889158421,20.171039262595098,5253.588051866974,860.5341185545697,1453.1526051089118,1,High Risk (Failure)
163.80246178550175,9983.194110144199,20004.44249493198,0.49450245479592214,47224.99660151629,17373.59156766795,1281.7168458792275,43493.10297829689,34007.64701473043,225.64615112016952,10.614393300006265,19.24111342258441,5905.252328682112,568.491718276746,511.06504788204,0,Low Risk (No Failure)
160.81490029786613,22221.506756092498,10556.699924928136,0.16058687072312583,38938.69576789765,20884.04418570954,10457.471002678594,22713.793533638345,12400.408814428178,222.81415250125343,8.41751728677598,18.20126416583142,3777.956503789407,632.6613360586337,1272.3593266765763,0,Low Risk (No Failure)
121.13975911359572,9295.74149811928,10826.987890867451,0.7049846384775807,47145.413987451655,22639.994077993866,6380.904680818091,23293.108971996015,59041.28202421853,154.7805834797129,10.158613861060442,20.240365526014635,3232.000858447909,1285.358016710556,1198.837105247886,0,Low Risk (No Failure)
70.80040746941151,11047.609325281348,24033.19823505057,0.737025905790354,19036.719466888553,17020.80141435968,6475.55362479852,12603.876765065643,61771.75632134126,176.69834881809186,9.23345297553378,21.920770269050692,3453.9762275054877,1945.3940640225837,829.6215077387988,0,Low Risk (No Failure)
203.28371655939208,26971.116485342664,9593.403373165953,0.25057129142214785,34190.91601021747,13979.982391080202,2185.9976291912208,33735.396452367975,51481.773622707464,264.54584325823197,10.998113613536399,21.266581503965448,4157.5691212712245,1037.3486533053206,1272.9937439058874,1,High Risk (Failure)
130.81237534925046,20546.039761025753,14737.359774958375,0.8459593654230126,50633.33382398087,13366.021111589098,1036.8430163007865,11013.924331073404,23222.788861974226,197.1601180885944,11.305499107252087,23.746862659416838,5369.887675778101,1218.5181822321692,948.586941340694,0,Low Risk (No Failure)
218.74528237173,26911.78917040622,28452.375764458233,0.22941867651571335,17650.33464424718,15473.822381646514,13200.826633971019,26249.741676920603,30914.710936256146,236.3314905852343,9.853273942742609,22.08260877016273,5874.909506745151,1760.260881280711,1010.2855414405924,1,High Risk (Failure)
66.40945904811112,14253.694613586138,18490.690201080193,0.48113181082746503,39403.503331083804,14558.528257277512,13666.289857842685,12411.938709909578,41936.324626945345,257.2679505264367,10.508361441749429,20.86175253482772,8128.375616866264,1227.339462988698,616.5717330578746,0,Low Risk (No Failure)
165.52172298252322,5597.5485964977825,13920.31242620137,0.12807850898487927,59856.49231466055,28832.812399470073,1174.4177661582064,20170.256354446243,34641.49854933087,108.59003287002382,9.149380718432534,19.95231973511714,3250.3323247724456,653.6663265169469,895.2192973075257,0,Low Risk (No Failure)
127.62067152217746,4299.096805331934,6678.96671786021,0.2692603164709776,34246.47816324234,23647.94027407249,6143.463175642657,11501.267667217466,28867.185425322292,231.75176152962632,8.830947536967543,20.90197594210371,9353.320354922584,1408.62895531667,641.066396205446,1,High Risk (Failure)
171.8318125579817,13279.725342093981,27921.667695573153,0.6488258765006141,18877.501203063675,29526.370960257747,3264.339416255636,38133.852670731765,17585.395342578897,132.55539693613517,9.144108179161455,20.612517327984833,7031.8420682343585,1732.437971791145,1126.0343186716486,0,Low Risk (No Failure)
82.92503339242258,28195.172220228502,34578.85053204252,0.5566058981802935,57740.41955886029,8105.9599159149875,3884.0014866729503,56869.628423484064,54345.717424608,235.91231553709918,9.749092663557708,20.260988956876396,8171.783569664678,1782.8440242804973,1488.4772503451602,0,Low Risk (No Failure)
105.8466003405255,3804.142233839447,23572.79285813359,0.7163310272566953,33922.96611344395,12005.071678473,7898.671826809057,12850.946961138683,45273.634493046025,162.48626893367614,10.695590055894538,20.98814625358333,6964.103268173331,832.8478508945434,512.2719989552888,1,High Risk (Failure)
67.71392621768896,2605.4346912138762,5963.592682034434,0.06845316942604274,56056.94761788232,10561.073894852567,8779.597599068642,25808.60696384038,61925.32744648455,237.38453238429514,11.110841427547747,23.677983097200176,4280.796445557892,892.4582867945675,1356.980942553308,1,High Risk (Failure)
142.7630490306575,23135.552447921167,29787.731879962073,0.12019154144553867,15002.16557524403,8887.78106895739,2568.994707841024,29202.671185616055,43397.41401733536,199.8141295599384,10.86567373700195,18.550535898169258,7204.014236678496,918.6740462988348,1289.7785719189428,1,High Risk (Failure)
219.669457685334,25597.89072803397,34646.10478180923,0.8410276377574117,40909.5861698528,11413.962656223785,3177.9528507151613,39774.290753016365,23374.49496576943,217.86694981959272,10.814024242578174,21.19350366878201,4806.868465070396,1224.493166191241,1350.176193298596,1,High Risk (Failure)
144.74409253696103,28207.25400321695,10116.811340195554,0.21411624341293556,46886.69884299013,13918.406722302696,11804.924931989479,28452.551713164885,21741.39920617672,125.71595783802158,9.409220832217054,21.62071634848713,5273.071871900192,1396.2806215950552,1209.859336072883,1,High Risk (Failure)
155.3021984972551,29081.481842878395,13616.377133820846,0.9431630524604393,26492.881837400033,7283.3734601827055,1834.7113205230967,17519.155474471067,28782.5357253871,289.01837012552494,9.32780837665189,18.17860946459475,6344.037538960498,604.5238793410432,586.7136995602174,1,High Risk (Failure)
74.62263781308422,20237.515717738293,18093.451964693384,0.5198353671551348,53579.91165596968,28689.684994417683,14929.782729564777,30383.962320701747,46523.65532803228,269.96874638070244,9.362573391542174,20.93852134387698,5999.009221031874,1494.8160033170707,737.9327845082294,0,Low Risk (No Failure)
105.95823866465308,7926.509651704601,20970.431838638862,0.06316773090303107,42522.80472393734,27179.919168053908,9327.60188687858,23267.165473918205,67394.72859368453,112.89702294756006,9.801776943903146,24.375732697754525,3071.395470085054,1798.4862617652088,951.4869239966878,1,High Risk (Failure)
62.01720319612144,14365.193322819909,13175.935071206204,0.22297747478768137,18930.318635127496,19546.958697290836,6973.089087994748,41780.44712205037,64919.31763324372,224.90614635486173,9.889632057293284,21.246652512201788,7075.042536820256,1699.0545214738759,707.1350908546915,1,High Risk (Failure)
84.95912325379243,3555.8984983240534,30971.02976972011,0.21932818403091914,48235.69673857022,6287.880648482628,10802.940209863116,33404.65879485583,24535.708552632645,242.2504786825725,10.378509933809989,21.750954743621218,7878.637808550758,741.750537969491,1340.083955221962,1,High Risk (Failure)
147.45234272516717,10692.244780543326,19035.14039374145,0.9719056826516705,53530.21237933874,17597.455110071165,13335.797548264545,31746.967840835998,69883.99789804546,277.15447824938923,10.277764886032823,23.018599532284746,6933.257367661899,822.0741462442837,1078.7321955212392,1,High Risk (Failure)
212.77844490611105,2594.02289835484,10991.848403337097,0.2270318342822687,25978.356663835348,19134.96212867411,4718.192762867487,31264.574020859953,46933.57508111974,284.95684722907345,11.519830147525049,21.60513912109201,3758.9420986354517,794.2887822079709,1482.9222960897368,1,High Risk (Failure)
70.13999527564283,27543.408270998945,7887.394734221491,0.2110558892668506,49059.00158810185,14792.713270369315,14687.256587252225,12072.98687690139,37696.06119362326,224.00300014551203,11.600235191008649,19.289644937218583,5241.956848849892,721.3481841743999,1153.2601189774286,1,High Risk (Failure)
143.74254581989862,19735.361378801284,30332.168368761973,0.21526877403285982,47135.526082248354,18405.229276708335,10462.750245232824,57615.27303140123,51293.60997835257,231.05607504565825,10.4458326891904,22.139709305409347,5232.341699390843,568.6134271995725,1004.1100438610606,1,High Risk (Failure)
199.43369443003485,19292.342185005997,10150.819793854736,0.8271867142453218,41457.400727471904,23826.576157185005,3049.7678307143333,17810.11267418433,56807.33638365929,292.843241717582,9.187846011744613,20.03748017158801,6111.824959253771,1559.9418687081024,1159.2703942510298,1,High Risk (Failure)
100.70265293469552,17539.062726968612,19634.40445422797,0.3796540158686732,40192.65612841154,24428.35132664425,3501.2848746368536,57273.22403089968,57654.03313884491,202.09060352487467,10.188903159899134,22.202627002152113,6770.047159641212,727.0580489889281,800.4552600154907,1,High Risk (Failure)
190.7852555689775,13144.010723996995,7426.092374963181,0.3288606325306772,27497.131463335438,17644.446876151545,14997.051205376334,27560.08643480055,27959.715277746887,144.06509068639335,10.568675230179208,21.70841762561653,6480.945488370599,1435.7819496238978,615.7293548314404,0,Low Risk (No Failure)
210.8370838616201,13149.056361534434,33584.1154474752,0.2813385860456368,45205.26350355016,12538.01009721592,4994.199661128347,51396.568457789035,42801.3477821533,187.71969472047857,9.824284520287645,24.685554688015053,9090.335862298973,1179.9336120053968,1373.6298466854628,1,High Risk (Failure)
64.66716218324231,3756.6395681443687,8322.455234915271,0.6532902447594835,48273.580022908274,9412.610227239622,9251.650584835652,42422.041726902295,57533.05552563859,203.00032798971466,9.720208367108613,21.5811347995464,6934.683273414368,1420.177034380734,837.988641638314,1,High Risk (Failure)
155.83656130835368,5724.1769798444275,11282.594504008426,0.8198821312594476,53771.56587476247,15598.577123495606,4052.6949626453033,65136.20208962118,52894.769597773586,179.71356904558985,8.325878493566286,18.85640251096709,6319.37297868894,1613.066122025691,654.4248112833322,1,High Risk (Failure)
170.3242801650498,18847.438535954872,17710.79455998927,0.674796429601556,21016.620694935147,7193.366609522296,3485.955287335116,22859.151742192073,31605.34828085992,151.28414701697773,9.727097343205013,18.898685360436723,7547.475842070492,779.0108899491095,858.5182377761537,1,High Risk (Failure)
104.79665498564546,27441.76825907137,7136.201526236976,0.11790631182028422,29228.01228942938,11829.076402005678,9987.077956720093,13852.793000206935,69787.60086515706,127.06822004915381,9.730155017262714,19.766416451766876,5636.249164141005,1833.3373025156607,685.6695443621636,1,High Risk (Failure)
92.2182051417559,1994.6391377960385,14941.824168279121,0.5460913252963926,50505.48793746737,20344.97397605202,12461.935982802323,20522.8577766391,60899.51904529952,229.89663734290144,10.082578177021162,20.95622418254498,8186.0056928477115,931.3537787568082,535.8072978074833,1,High Risk (Failure)
79.9460289925227,24804.621268630734,8539.369983110771,0.6082976137418968,15123.794799926445,13408.368008866815,3050.9850636493406,42734.49892988964,29372.41301062278,207.83820146616088,9.795021294511395,18.068104088546583,3934.7940550964345,1731.5676596062544,1133.9244750441212,1,High Risk (Failure)
105.99386638356002,21101.911447361534,22376.601056826734,0.708705200549003,45991.011791902536,19505.845585883246,7982.7723217718285,12516.675760051465,10971.650559817695,207.85297329883932,10.584988189203532,18.71222169675816,3958.1129574534575,624.2371012069118,914.1279836050587,0,Low Risk (No Failure)
151.12636473073658,13437.735509156106,28747.217267900836,0.39212814696927234,33632.78730960036,9952.489300779986,2676.82421899798,50702.638135596746,66019.00670869353,117.15279555542632,8.039214304308242,23.36510882647475,4759.16052869619,1989.166577358901,1445.302300541623,1,High Risk (Failure)
146.29475870650413,9175.632312320296,27628.46999105648,0.5969639657164428,31080.69112490666,14425.556264163792,3424.8490389509802,13067.063663663062,67489.24989726499,231.7844118241329,8.86114531798303,21.985453670272648,3587.5734220171394,1953.484428330105,1106.6073310719253,1,High Risk (Failure)
138.85833351159147,9880.93811162361,25482.707742005598,0.7025480805537769,22194.0894856703,11127.375182622302,6579.454886718132,52079.783829321335,18138.971455604675,120.06210937839145,9.063195988804816,20.062495603310666,9931.381663142476,1678.1944649395602,881.2433159752379,1,High Risk (Failure)
97.76807413543423,3556.1250583329715,5328.9095939463,0.2513740072904138,48457.43786023948,29639.435862230475,7298.9900573769455,40374.53229450433,14653.540151592528,158.97404626031928,10.11574435895757,23.674232581988488,5588.386268307051,1618.399253880572,1114.5288373231815,1,High Risk (Failure)
89.47597427808418,12833.173386481682,13025.355720615999,0.42696639419100924,34907.510269835555,29883.557915220576,10130.67099183793,25638.21083883842,46582.99615979806,166.10409985570374,10.99985337868804,20.706019280036216,8111.7701274297015,1513.5100327018627,1003.8191285471449,1,High Risk (Failure)
71.55174543666814,14360.652969099989,30775.46598233325,0.5430125100143456,17431.781655655606,19991.03009868721,13917.047379360849,25682.95020575587,60470.466074073825,133.20944574402517,8.704597763873917,22.047494566661808,6993.013628999225,784.0570436102493,991.8319880511614,1,High Risk (Failure)
111.32481039547773,7063.8235730988135,17553.40369148684,0.04734997732683943,35442.048444118016,23220.154975484693,13047.309952882402,23939.20361060292,48890.285150879434,247.36709191997448,10.623933406761223,22.551118958808896,5660.16475490395,1275.3059990225556,693.0137711932788,1,High Risk (Failure)
99.92739197592098,23236.282333811738,28210.380394377524,0.4493360594354341,50725.698005971084,12643.629857535017,12190.493272130614,54720.74178447115,25765.586662902708,108.11521986377562,8.998615930357564,18.355675309869504,7643.115582335772,849.146911924285,1297.8943208261094,1,High Risk (Failure)
195.5820688914198,27562.34711466752,14979.635027151537,0.08823432528563446,40265.20577899521,7266.866265323724,8287.84897533644,15615.267386854326,63558.64657416373,190.23630873999667,11.423373055827728,23.51761446453483,4891.224557444115,1500.3631490359353,1329.8332608483097,0,Low Risk (No Failure)
95.39819143137024,8601.2761884871,19062.005804643806,0.6426396706650265,59074.14281243725,10516.020993919086,2748.72995167965,51086.888908142544,21852.823196618876,291.0756387312655,8.758620552167079,22.844903327048367,6688.266686460245,1537.6232117291456,1124.8610977650778,0,Low Risk (No Failure)
116.0832854857859,6832.959735120941,24013.652586350065,0.6545765141741385,34170.22857373549,27267.60068464803,9854.090721349368,38702.99185826749,14723.175482521834,226.23673234333828,9.180822805534262,19.211735975874905,6210.111185425563,1848.7686423868433,992.1213853412676,0,Low Risk (No Failure)
177.24824716260008,25821.830498147636,29768.260175227817,0.5210021729483569,36088.86293625988,6221.748967676639,1060.848253306573,11817.051570459476,13271.289337088954,252.26128235344137,8.312538335148055,22.560646866581624,9627.94139401565,585.6449098511806,1088.4326619687135,1,High Risk (Failure)
64.88003999024791,9172.925095568688,20671.19791900403,0.348505799831591,49695.33473744484,5934.141503465277,6242.66404852843,12171.316240921464,55850.26159927562,274.64704136342425,11.607784039788825,22.835583906936293,7021.857546325986,1561.331235860041,991.6579383346227,1,High Risk (Failure)
208.03973078650654,22850.792557947938,32722.334158828082,0.5447796153700997,28501.188245920304,10738.322104304014,9771.402805366197,26938.67212952359,15296.126226672917,174.06884042953723,11.17468019289502,21.15880907933621,9277.877866036273,1269.73052191047,931.9989924421884,1,High Risk (Failure)
210.37313977815603,24158.11930578737,23185.80612272421,0.8258534343389649,40197.31975665044,18920.236052793764,5871.028134650621,35774.40106227483,40242.364489491505,117.59075068489228,11.317510506732559,23.140247346598624,8409.033064434749,1415.837321458043,892.5648270307402,1,High Risk (Failure)
88.99729058650563,13265.362768505174,11932.667664037057,0.07090792233184173,30384.659492525174,9913.584888397261,4107.9634292940345,61528.507270763985,42161.71497375167,285.86137185500013,11.465815400077712,24.876332865991365,4618.839472127053,1385.466013539576,937.3380154325555,1,High Risk (Failure)
159.22121564824587,22802.146744021054,5270.169927934257,0.1906759467547915,18802.054691017303,8215.008905629797,11579.462447009384,52236.104524245726,63250.43140708772,152.93937656755998,8.8562996390496,24.17953573397684,9041.220539660866,999.4728519099381,732.1926323466218,1,High Risk (Failure)
137.1265692979332,28504.329510703294,7441.709498989487,0.7186953871475389,53469.49725634119,26941.694073337894,7571.905228776697,61403.41430026133,47338.188428050846,157.5740024248231,8.498631874627156,22.94623564544912,9945.585616126282,1867.9135615904988,574.5002290553019,1,High Risk (Failure)
98.72884344184007,9728.02326931703,17511.65708698117,0.6805548476444818,23560.79477139595,28249.854560491385,12115.444842710907,61168.238996588334,29254.22003849589,243.7875971667718,8.892607055012961,21.518989321394848,6502.980533619117,520.7257564855469,628.1380452908506,1,High Risk (Failure)
73.99144028798167,1433.5491620229282,18038.071061539755,0.16047647631704187,21275.90945695657,11029.958641781208,6135.98400640508,25459.071545501618,13842.35278506204,199.43788746891454,10.08587223614234,20.27260064056382,6905.344454416672,1183.8913525472503,1111.1435920334698,0,Low Risk (No Failure)
209.2336813012418,29156.236632046213,23403.722798937713,0.4103056135599151,21033.741398912112,16934.1220853452,1103.76977066584,65962.04900006982,58603.89278300092,274.250744808326,11.73552775972002,20.25510378254063,7251.460327995006,706.2119800614553,1422.7563510148848,0,Low Risk (No Failure)
168.75155469333524,15445.76055133543,20020.898833859297,0.1353624617602578,29484.584289875427,14123.01285999961,11037.310434434025,65361.610806575976,36916.902922270616,189.32616363073873,9.09246616345315,21.93921655098677,9567.494601366878,1756.788517993546,1089.5958720640547,0,Low Risk (No Failure)
203.31039108265864,24574.923756424174,5579.132501536,0.2300726211037034,49752.44815658744,18341.215452942175,12808.677092394655,65813.42406349612,52965.282085752726,278.1931009079523,8.462588958402208,19.83157160989743,3049.893340643305,512.0252223306187,966.6477356889436,0,Low Risk (No Failure)
106.26999140735197,5435.352407787358,6377.900966872699,0.10757870271386272,33712.799164375596,27485.93655986791,4755.894975177988,11588.8046831826,62825.3219451942,264.4184800741004,8.48576262594449,20.91466474183337,4354.900880026348,1365.0689735369224,790.0042438141961,0,Low Risk (No Failure)
119.36620207753643,29420.15843270769,9346.95977922038,0.01603640003064577,59913.20641165067,27696.55217933745,5651.475767855677,28794.56357103466,55296.51817686062,242.11640070246807,8.320769156158757,24.022984046142785,4969.253079296577,1697.0687572658874,1489.3655599706144,1,High Risk (Failure)
119.02618233116358,25468.134988597467,24608.088576056794,0.3239391201607158,16308.942836503846,8664.050070359117,8168.185440763129,65346.49563351604,63221.54247370914,174.57980003958778,8.215661356311454,21.46679983592442,8066.191066969806,1929.986990946775,728.8979765730219,1,High Risk (Failure)
68.29176589158831,11281.898056029613,18292.277988003465,0.11924491131926118,29809.65439714959,6084.082504205675,14343.860030305172,23351.203167271222,43172.15222576031,129.6874807249281,10.566383111289195,18.77220315675386,7117.284914097032,928.0085811240467,964.1625762680817,1,High Risk (Failure)
160.46406231854525,24816.52319081252,9201.936780768094,0.2700024811211953,55731.39673405951,16962.059893821788,4140.018510901431,26327.70826445012,35895.930018305924,284.89565435887727,10.411663627000294,22.566671812659866,7925.495413657968,595.6786451484888,1100.6832308821931,1,High Risk (Failure)
200.39552216432847,1263.5240135852732,30862.522575206942,0.8433916463290707,31251.1882697576,11596.621900997998,14873.129511626665,15690.381541009727,62689.28293363627,104.42796634888522,8.456768938849198,20.228850961712673,9742.013912257535,1452.7144179435215,702.4645503485822,1,High Risk (Failure)
110.4581989225788,28523.308492301687,16417.27824134321,0.4937887702564081,42244.127064602566,18449.785513333027,5861.174784996547,40187.35463000807,13279.184975092508,257.11866750867046,11.476902222505048,21.72851617106273,9365.931845260835,1341.5466564047802,678.3852936449148,0,Low Risk (No Failure)
118.95182718665262,1643.8815766476591,26802.216956879587,0.373617772310308,40845.9781636745,8231.765697996969,1011.4046423225682,69458.10020674566,33116.83804387918,173.81720986186397,11.190591640175395,22.063243695394746,6940.8100090769385,1900.2673883630898,1271.2285249341567,0,Low Risk (No Failure)
70.6394027786844,24071.772911470005,20270.10336447855,0.7675066953953641,58093.6332299296,10266.03855886986,6954.276124686164,29168.532753834108,57264.84709532588,197.92380882618824,11.870580864568755,23.4983616096782,3869.1562720273805,1059.988744459925,889.4063133128662,1,High Risk (Failure)
127.49250856621302,13839.341903487291,5249.145233699892,0.897774068255051,44360.61668195791,12801.825457385561,7936.294997510169,20689.19987476775,19709.71620229697,224.9169809110586,8.42459499395703,23.530439300766936,8829.075178434912,731.4088951119281,1027.6942496552945,1,High Risk (Failure)
113.64464801252731,6380.253282473856,19848.56401114975,0.5457771532249376,16997.505054311307,17388.444368602773,5438.988652628768,49364.76633814154,38604.15192238273,178.5799072546743,8.611861257446849,21.656818835916074,5901.048655441345,1916.997595729334,757.2494636445867,0,Low Risk (No Failure)
82.51384448780135,21889.667705813798,8331.573331343281,0.7459546179039995,31723.242829728093,28457.135378815263,1731.732899299207,61669.27696759522,30644.932115407482,105.64273726255244,11.087824294296265,19.230248156473902,9202.860306439488,988.5494465748561,1473.2227876999445,1,High Risk (Failure)
127.86090740838176,11971.152607792525,34589.505268160385,0.4349591063512168,39222.47577951735,17731.857294060836,14070.318406769124,61066.45927505217,40144.11484454626,280.04080472120427,10.816321080108972,19.48800194497205,9579.729769664427,1427.8710149432472,1440.5090649104018,1,High Risk (Failure)
76.87579199306089,19965.832421187202,23823.17023046453,0.7944412009213938,35110.237202545926,24371.396701702255,9450.583397297349,20311.199956824654,59353.72547658519,130.540217638253,11.951798459057596,24.79183178744319,8108.94761844309,1205.6769483300654,575.2305502346242,1,High Risk (Failure)
210.86555262600308,28946.870471924423,6183.558587680744,0.7707286153065659,17839.73511864053,7822.09546229619,13846.650322490683,20118.274461963985,68338.9857194571,280.22472865950124,8.201578095230401,21.208989353635907,4861.03655277182,923.4540143972686,925.9964172421107,1,High Risk (Failure)
77.08811264037818,8332.794384114204,18668.07612504986,0.11571329956896959,26315.968672098417,27730.568927603665,7853.373613613529,44154.61022792544,55466.15009812977,258.35975399097435,8.380425360940535,18.275408945050753,7993.907224051523,1420.0869383315026,729.2003257965573,0,Low Risk (No Failure)
117.82460465074982,26665.4444118705,11127.942749990161,0.11374301941372433,48869.430054507604,27226.773137204098,11332.045962739816,56727.85335082777,30786.84931566574,125.50246713795035,9.122478124657608,22.13166801962249,3019.3935375608744,1221.001231360457,710.891218646597,0,Low Risk (No Failure)
118.33499651160639,20418.726439588012,6306.820417172601,0.29190961379034364,44257.75411076299,18967.95220269815,9412.184229198654,67411.02527303826,38347.115221991975,207.2200445168438,11.795050620204133,22.24414139998784,4267.350361851401,1542.332052510348,730.2104121003895,1,High Risk (Failure)
204.3925291657347,29562.944144803256,29334.68784762517,0.2799296216564434,34716.19071163051,21817.203489808977,11382.860235037353,38617.35506545678,15469.876585410122,289.83406657360104,8.728022647382655,18.908077656890807,6864.541971213219,1863.5679838041558,1406.928844789767,1,High Risk (Failure)
120.37810828746413,26810.548133314176,17532.08583534688,0.510886008224664,44598.168554436255,10436.918495260417,7242.893324295279,67065.03287590621,11947.961154022145,138.7675859003731,11.21616737980668,20.00838689017173,5811.558297459875,1507.7021440444232,1075.618248142197,0,Low Risk (No Failure)
98.4232990045109,2597.9445196061015,14652.110895748334,0.28885112333163143,54827.90479125004,27567.923370279983,7738.1104417103,57351.38133223843,15342.661589467341,137.04223411257908,9.970452904386296,24.248310595694154,7298.687698657061,1089.1020618206985,705.6302920171204,1,High Risk (Failure)
148.85816815002102,2089.4206567754372,30019.722862972896,0.18693534504167642,33193.70961281955,18007.218271787613,11405.083505636487,39019.330941079505,57351.588206399865,177.18511366355156,8.92186578961196,21.115688614004778,6779.7119588695095,1771.9984259743412,1100.8095582809005,1,High Risk (Failure)
216.99080466625853,26496.925789976096,9085.224270847137,0.4290727674550032,26918.358008211617,25284.655589699894,6222.870056018146,38954.31722060655,46341.8951101542,297.53567100504245,11.038127084179683,23.1195274715952,9935.88440414791,1330.321120737864,881.7111487035926,1,High Risk (Failure)
89.10081350386318,2915.603926842642,17274.31363752867,0.7083589360386612,37073.7031661463,23072.502511132978,4720.242080485943,19519.78265367585,27519.559393572294,192.10487757101254,10.594774355740556,24.97137199407129,4017.699648613423,994.3724939670442,1318.106143387792,1,High Risk (Failure)
158.44768401116832,2909.0654575314597,29061.87677932409,0.2907048559043821,29283.23981215361,27729.357468492024,7801.896232831524,17068.047505688744,17401.77067969303,192.32533025249012,9.349389001723251,23.53003311142634,9068.817095935414,1317.9309387393228,752.2323920767581,1,High Risk (Failure)
114.66257803049629,14662.200294934863,12124.067216682372,0.0895156997948855,56210.64704461441,8956.488995257992,5405.96916831044,43548.92970941799,67864.04210443496,211.92770040840125,10.450819334678528,20.106767711644753,7483.000524272339,711.962171254127,1230.360785536394,0,Low Risk (No Failure)
117.13938548808045,18821.68952841815,13354.7601007216,0.25261946060177465,26676.40423073183,22270.411227825676,8275.16938120903,14492.197682366841,67593.98188250145,163.93967487943848,8.897008780064015,24.81686470416281,4772.915157473437,836.3482486028347,859.7865511261566,1,High Risk (Failure)
67.18580783929853,21064.05333666449,17017.861223158172,0.4292558745958369,23576.563550437168,13534.730033013837,10839.126615041227,63906.68469947818,26728.809700790338,111.37277975739408,9.13175780916815,19.951119212240737,4068.1530887374392,1352.6950524818565,532.6123233044152,1,High Risk (Failure)
118.37159523324779,12675.731711864717,20532.21971313387,0.5030684634788309,45096.026956503054,18437.943423637305,12576.939231983057,10548.912143562235,43184.37275740128,200.7200068506493,9.611022778944303,18.40537086013063,7687.529608682141,551.0589804880839,521.0810995209932,0,Low Risk (No Failure)
163.03992691824251,19212.883472516573,22556.60988172866,0.6514003587009167,18125.15217244804,29435.70922706175,10468.435248023006,64396.77966487602,63709.127518744775,189.7222268117598,8.096259810433915,24.635413627299968,4282.492417260399,1134.2549523403914,936.035867609939,1,High Risk (Failure)
188.35151692064636,10753.378433839673,27564.64676772998,0.617740500624998,43784.89200554289,27661.15796184562,4851.506267325759,24823.049149117054,30007.319696334474,182.27068345097143,11.953872192348298,21.951340757238807,4125.490353804955,1785.1198867917017,1483.4503663795322,1,High Risk (Failure)
189.1448859783812,1900.6494050195129,31310.818137849114,0.9723654847799783,32215.8167617023,17139.150095881585,7458.865366663452,41761.082365189715,45547.69940673063,209.73335606043074,8.495809305033529,21.033425791806998,5244.181980092606,720.5355675463277,779.4037804018368,1,High Risk (Failure)
149.96749054046558,15067.114365138166,6955.784065540731,0.4231181975477304,53104.52397869986,25831.84210532796,8661.24688996331,45120.46391652358,28260.465052235362,272.01777408301643,11.632020760086004,19.81208964367898,9655.330585834934,1714.1822080412019,597.4327224060191,1,High Risk (Failure)
193.93914045290435,4779.880983503084,31092.77748703065,0.2203210287124283,51219.847409618786,21113.88999910866,4867.588838424761,12111.345072409587,21248.45642281844,116.34898470424051,11.947483238205828,23.952878348837487,5277.090791025434,725.3208510847005,1182.3735950985672,0,Low Risk (No Failure)
108.849708271477,7775.11814580843,13337.660323080772,0.97529953864988,56883.39982266426,29960.424091231373,9736.235082199795,13112.2258426396,51220.29088532098,263.78368406825,11.376752661479452,21.77979160797977,4263.595784773076,1252.8587229063571,867.4680789351492,1,High Risk (Failure)
211.08263825814942,3630.9055996870948,18809.809543334988,0.8090185422666974,53080.274540193495,8919.53387852527,13151.907917714534,62092.05685148994,68268.28271733163,100.50406001505914,11.12832776612136,19.17080989094787,6162.813179855852,1570.636843720282,1469.8043097478198,1,High Risk (Failure)
82.54787599596202,14768.301175265886,25436.277734646465,0.02903990220921937,28203.490950872776,14715.32652232602,2923.563334145191,50119.63141245828,47612.90819382901,268.1844904910389,11.919494607406165,21.12220024873572,5341.236340633358,1270.7182561065163,1239.014987163068,1,High Risk (Failure)
114.28884276953079,8207.536573885693,19399.491965869754,0.3196694712345898,32337.821671529222,5871.945817854364,4498.732290900846,19195.297739146943,18404.87247403559,147.83108510640895,10.558630602405746,20.257110620247584,6857.915541404285,1547.1961484323847,901.9847032353891,0,Low Risk (No Failure)
161.53318680804858,2266.166932677247,31191.0680457841,0.23132831230695827,42486.999322376694,12778.789456759503,2730.8151364758587,25651.395209249946,22773.472354966572,255.13140234545085,11.459187909995071,21.27628919507646,3405.181920613265,1541.4334234072815,1212.3333600020746,1,High Risk (Failure)
66.2287941321068,7709.112682804364,23735.540460930413,0.7004774696901418,25548.065417568112,22368.937917859323,7072.906057218623,54033.8659088286,33074.38626260811,233.02264125771325,8.101199797659852,20.523050423042136,6621.6218285644,1819.733478370217,726.1033131710525,1,High Risk (Failure)
136.2137173281758,16764.271672427472,18050.357823124257,0.5785754113832238,44314.341548820754,15969.646355973024,10158.961546232498,15213.396253962888,35303.73203674168,185.61610249575588,9.67572381797346,22.55110423610408,3340.5527439767784,1572.6038145717157,882.9641926492741,1,High Risk (Failure)
194.25595180793783,27384.88558412975,16227.934035522027,0.3271782380193179,37608.09988682324,23472.64778685175,3515.2021384369923,10473.533560483058,50562.82903556049,272.97599532062065,8.096653044030383,19.424266925616745,8707.486347578626,1882.5717531920868,1416.5431850231405,0,Low Risk (No Failure)
188.70624954839573,17387.096208064115,16627.450023104993,0.32901261378393265,38321.35401359445,25819.582854712207,3168.767165144521,34923.40783380852,13304.251497578445,237.42621165629424,11.386028163193446,20.150646115721187,7427.948217256837,593.3276032792527,1249.1460664626743,0,Low Risk (No Failure)
170.40750214551196,9581.864120428363,32616.056937188827,0.8508126664701222,41646.55199949887,13516.542288448847,3294.016441762076,16916.679476905425,16243.870515324843,187.6262969602773,10.840069241044986,23.52702707073646,4514.734773407784,800.6448214088589,1185.6081830756234,0,Low Risk (No Failure)
188.38428551221187,28050.5946159443,34742.055891488344,0.6357367782552691,58374.99906497198,10343.827682487079,7311.245664628027,30804.372448167494,55085.921146893175,195.91888907215156,11.220725395445047,18.097421940816865,8720.596231722313,988.8093112537437,1478.0880075975833,0,Low Risk (No Failure)
176.93879603258307,5172.171023956564,12269.771907389642,0.7382168001363199,36040.66627259836,24684.58281378345,11660.730328084333,42434.20399725453,33155.38219333373,168.4897008378714,10.31224672580922,20.892005206934087,7689.067455398227,648.5252331587541,1312.249516111082,1,High Risk (Failure)
217.90335126212761,5260.000497455598,31525.834136851077,0.9751145070457258,30487.358703831178,16400.7325899669,10244.699113403129,28713.244191317084,56409.61281272841,294.1657947194126,10.74250147075875,22.943454235567792,8901.268728349547,1745.4247115332344,578.9275378551836,0,Low Risk (No Failure)
144.00789443926155,28752.761297242803,11254.834248627816,0.5499889821142169,52653.584928860655,11371.226361880104,6831.152292589777,29654.28797299872,34235.107201301485,190.464183387049,8.839513911920761,18.220705910249073,3349.028659909781,694.2864693277718,1409.2781306896975,0,Low Risk (No Failure)
148.32754893631684,16000.892922875006,30771.38989119968,0.8363098750156717,37331.699011882745,29780.71115221561,8722.085033018377,31724.720254001786,17361.072282001332,125.26510099607466,10.030196968757934,23.353853306391343,5669.020951626566,1562.7787028966275,908.9144633737234,1,High Risk (Failure)
98.70292705806227,11962.723533597658,33057.50943182999,0.7682759477995226,15497.447941365428,13027.903357479574,13615.181938949536,13966.261713294252,31001.85204648302,178.8704654912031,10.05102912902313,20.332409057720003,3140.2687618060045,504.30453903402986,604.3938625951483,1,High Risk (Failure)
173.49133255561753,8612.749523729779,24738.524843582425,0.8406815086175822,42805.834085339186,12600.986547264105,9267.22817041579,57882.088647870514,21273.842019554504,170.77779134306383,8.050006644587137,20.306623711504127,8008.302107672869,1141.6253179014666,932.480390240753,1,High Risk (Failure)
186.6493124146192,1766.9601753323564,30620.46591366378,0.7194768931764646,39326.7594282787,21227.590871614993,3703.551118931084,12346.749283664103,25559.661992090983,247.4009346444544,9.027541955500778,20.60612941753862,7170.88044286458,1191.7921582171164,1380.6813047434475,0,Low Risk (No Failure)
85.42530682709656,7980.6649842416955,9667.709731550236,0.4712948285333167,32203.365673243305,5763.105398375805,9263.105323298125,27861.802761778814,46981.873888450136,164.2576568667954,10.497850455483977,22.369532688245883,6075.995856723816,1097.3454562201716,770.3380031321467,1,High Risk (Failure)
176.69516705407943,16587.3188565238,34884.40492800015,0.6098116579787016,50333.145932547464,19396.15144758926,7453.519467248213,45086.93218648188,59859.230319695795,155.2660955272588,9.638951012615983,22.236541766403235,9068.680896704202,585.0197579707368,617.0010744627439,1,High Risk (Failure)
107.44958595294891,27136.517026100337,5550.4598502089775,0.6180222786815124,28568.15408577901,22640.06540571749,11940.088090376068,61881.16158270782,68755.4517026667,220.05623646645006,9.659050593550475,24.468169828938052,5870.63171591348,1113.677911368593,873.3600220854463,1,High Risk (Failure)
211.92329978522275,4722.14787182615,32028.904881162915,0.5755771256984202,42423.35626483371,7709.367682329247,11961.567003201584,37662.05434942909,12275.645491524068,228.31942121046933,8.417009659533718,21.9599716644873,9550.40327341189,1042.12732057469,1183.691946941683,1,High Risk (Failure)
89.86239036762922,3705.334156937087,7087.755421889269,0.9793758196664546,34453.53464928882,8674.976179083844,14063.3317118069,27626.76679301959,53437.20379865635,152.3918459835208,9.051009847755633,21.470946619929727,8667.075454169782,1712.722400405434,1257.1360117351505,0,Low Risk (No Failure)
75.28565021354692,17243.363507271104,19863.77578708833,0.6079882311965377,24601.7358309688,15363.462821281459,10131.491666234975,63512.1436355852,52216.46968420511,145.5164739721524,11.121405558387469,23.101796355576116,7725.145033002003,1113.6329089203418,905.9289636462213,1,High Risk (Failure)
135.00287447432095,29189.55076408116,19564.876734976177,0.13645111827045853,49600.924779636385,5336.498823286782,8033.604752876963,63596.1469250619,18300.65268118035,125.60787014351826,10.622577659966899,19.350038083231706,7866.758630704528,1111.7684814522554,1469.2281564202758,1,High Risk (Failure)
66.4174706259972,21582.375459229588,30880.222109956674,0.12376066608401104,40087.44418559763,6297.431029628274,11308.72694584577,44645.44882374885,56883.02605807223,252.7013417682059,9.842101368900433,23.285221011062408,5743.782300603195,1740.9090670644866,707.180786736463,1,High Risk (Failure)
182.36956814447927,3109.3515915386984,24604.667961747426,0.4914137546228817,28363.693080820663,25115.292525633522,12791.54939811066,54108.55212082744,45143.319844500395,264.4408301697604,11.709833295248908,22.554211680745723,4092.5435097939617,1012.9661948585893,1460.2268933900127,1,High Risk (Failure)
207.31062412457914,21835.345171371835,15303.328498820296,0.20767464835910665,15441.023712028697,17957.86599855187,8504.677544939932,57802.329924207836,31406.13462748416,271.51295149601117,10.834709374994656,24.223406942177853,5969.551902869753,1493.759292719098,818.4972607406967,0,Low Risk (No Failure)
98.71634085072726,15187.271211954629,28970.31114057076,0.2847919890667142,26781.97045113596,23290.32048283416,9745.177354039706,12702.12983839112,59582.807695614516,192.17907136563025,10.895005923164696,24.36708290377465,8835.709246350025,1037.873957260008,953.2509561550717,1,High Risk (Failure)
167.47210950493707,25017.390210380134,28018.349031609447,0.7442809392941642,16017.97007071953,19673.63912283629,5610.451023504459,56137.41644040126,60012.57004905764,288.47954445616006,11.76621910306755,18.821680364454327,8099.8665805523715,979.9353673405085,1408.8478840691755,1,High Risk (Failure)
129.25056035351508,1746.5298826692697,17581.69513905168,0.7173277870408695,55628.91572062384,14612.339535182999,11469.936771347948,65000.314548230795,41892.191216956446,258.0892173383791,8.136694775757014,23.940012268514796,7945.316719578254,1697.489243836423,1392.9507668609126,1,High Risk (Failure)
149.08206288222877,23010.32812376689,13935.420450800653,0.7889771878522938,38536.860057669255,15596.868585861614,14636.953629595817,31265.666981251758,27356.808023580325,277.8485423773451,11.773835869056448,21.700882477456496,3192.9849832489913,1565.6239990730833,807.8685397377765,1,High Risk (Failure)
96.51765815899185,13312.605608392712,29856.157277811482,0.14425131411659153,18849.09116847579,5977.889470099269,9487.472839251664,20324.32201199629,11240.376784225016,234.34114991354372,11.110625562750773,20.438432233350134,9254.158356580954,1107.848288903936,732.5224837067692,1,High Risk (Failure)
80.54308631266004,12136.553144983787,15084.789949552965,0.653130670289656,42415.726000736504,23422.55028977404,11038.243619106726,35993.885265702644,37430.229957411044,239.97415649624307,10.180311302703714,21.51722752981164,6179.386365622667,1887.2735393682801,1074.703912142932,1,High Risk (Failure)
165.11282500274234,17812.37633325339,5139.334492549663,0.3170824173929506,35616.22633158628,13215.756457887566,8813.352048469096,18693.916801966,62531.411393228096,268.1105098136579,11.758994511665975,22.44741236250379,4610.5252375489945,1787.79965585242,1358.4384045522443,1,High Risk (Failure)
174.23242120105436,3151.109672235054,26505.116202017078,0.6414874708055881,59068.49988378324,26606.86900851771,2924.1939620005005,30236.99414946737,34322.348226270115,217.96624795557887,10.099204386599926,19.012003092898606,4723.864273133187,673.1560292971593,798.0961999296454,1,High Risk (Failure)
210.13447309136606,4035.1527700479533,25363.279505612867,0.4017452054249785,52890.69838733286,6253.160808020404,9018.124583165698,21520.478224605293,14529.416861317604,124.60331719667603,10.836190886410895,22.41852467642273,4954.01086973722,1016.0262280464135,1252.3765669345344,1,High Risk (Failure)
214.96597307198275,12531.414586249837,22602.64390074164,0.6673986245608076,31129.158407106697,13276.868467454413,11483.187471442447,26859.036476969428,57298.426181587216,130.72949057753203,9.01202082523952,24.342884872586595,3502.271621266606,784.8389995290838,1313.3770318512336,0,Low Risk (No Failure)
167.96580834678568,4335.317168014837,22884.883937320326,0.5590065389858901,57655.222020810375,8971.975354885102,13100.894778848951,30971.95245274495,53861.23111964883,160.2395023673218,11.067923473248946,20.410010273335413,8445.062525762905,712.9045283272022,1093.9712020662205,0,Low Risk (No Failure)
157.13433259500064,24370.84390670877,28304.941083448655,0.8987068295747931,46536.11165858747,14105.426118706999,3183.5396522493375,22040.95257406514,34112.24812003283,178.16808178658397,9.590005507428675,18.46286398954194,4199.787897136303,859.4425527424992,820.0825767608292,1,High Risk (Failure)
141.12954347819493,16903.62716551544,24327.242024779458,0.9265455414356274,27897.700130237743,10088.367948010686,1983.2419052550895,31549.191478206467,63511.052765132015,168.1793070165816,10.447385234393881,21.119005168699132,6157.785997557646,1903.5928171501691,1216.6195126337138,0,Low Risk (No Failure)
198.49234329992836,25659.21353657037,21262.895275949562,0.604709793887392,58904.34591260722,13697.348522031096,1770.1920098900553,32168.651679066206,10133.310599778802,264.5720172120532,8.390768461044471,19.426642895371003,9348.862195907575,1165.5343489001798,592.5869976778222,1,High Risk (Failure)
161.75275314619654,20208.783937469852,16156.87998623528,0.36975250797302794,29810.193580267227,18199.28774520915,10304.96996942572,51616.26051531275,30169.302646123408,211.8972515253023,8.88570887673703,20.807675977802624,9569.055630660478,1615.8985158494793,844.3236558188894,1,High Risk (Failure)
190.87472385904994,15179.57686671511,21018.696408048017,0.83423842964064,29610.09950520563,11628.460092701072,10275.127904030542,44085.52383398493,15824.683834236295,185.8708578101909,11.802273723894462,19.01029104089346,7346.989140961183,637.7420195324219,1499.8750991412935,1,High Risk (Failure)
163.89157193230108,6256.2574109950065,6869.53175147557,0.4321672551739859,53316.19562490948,8309.323985062565,5566.788518546664,64534.339046409834,69785.1805702413,165.3686979545028,10.056151599488137,23.14395922380084,6934.36689764552,1608.6693981620258,1257.338642041691,0,Low Risk (No Failure)
201.38943483007836,20528.35289186522,31691.411603731925,0.5297249468086674,19797.588884004486,12412.808790917934,11778.71618851822,30758.393569784013,43867.895209042756,111.24288420135892,10.206261213773415,20.178077243445536,9215.6310544757,1471.3201352429116,914.2804957979463,0,Low Risk (No Failure)
201.1866189451742,17585.02815130966,27799.914749929056,0.27563537001619454,51557.78587857211,25771.15707270954,5879.286220792491,29405.508051372148,14820.110241262846,113.86171063106035,8.284189432229397,20.91289366505237,3134.942051779503,1293.3965875829585,1250.0574355421745,1,High Risk (Failure)
124.30894617747875,15219.062192885021,33114.34900445366,0.9967264010577331,39848.37490206312,13696.433028502252,10523.551424045101,35471.575874170245,16739.66565085815,240.28275484749216,9.40640530994313,24.836379672762884,3547.4831360808516,918.1564811377531,1072.751643750164,1,High Risk (Failure)
192.17034952772568,9861.717320506947,11502.73133965955,0.9344556867627815,42829.95623701546,23446.958820149717,4394.80639130215,65935.77619252223,69205.12068078104,269.9068306492835,9.348198634203115,24.112596183480445,7874.019883676315,1959.996109833025,1372.2218360290913,0,Low Risk (No Failure)
188.2764932911667,11652.874943041119,9268.586558328076,0.1493484503194734,20612.56965235161,29711.90681986694,7137.972569378875,23435.928666564236,37577.44622134145,210.65146784865686,9.56267029691762,18.47320981210645,6307.2765456842335,736.7909909710809,1057.7323220951714,1,High Risk (Failure)
152.29718098123203,15378.764706807633,26273.71522445687,0.1441600603883696,44915.86459637063,18935.29144117237,14713.157319300402,64228.210970153064,29550.428019878524,151.23008845228094,11.4446084863907,23.368795716931288,6126.759864429284,1502.7519272477648,650.4714608390743,0,Low Risk (No Failure)
213.29175681910084,7698.400005313845,28398.86607166338,0.36300144998256145,29393.38675183695,13446.015476871191,14188.353876727377,26908.313386833626,20412.351927109386,193.71970174576705,8.829643777509265,24.765222361303803,5795.117423704161,1847.8374945963037,1102.777356964514,1,High Risk (Failure)
191.40002472955268,17236.611801732528,7135.303965910303,0.24765009847460473,43039.218089750124,13082.521875109527,14964.35833987974,25975.5208307655,53714.17574313953,251.43727221814711,10.146872793550816,18.903997102195603,8759.17964178812,1998.3360741988204,619.2460657108943,0,Low Risk (No Failure)
137.5514059408075,16290.399348569637,14894.474265690833,0.09132764436533236,25510.69041210317,6307.671337742142,6791.320874183167,56526.81220330383,34852.73153570831,243.94273202210718,10.973912494019862,19.500101448588403,3501.3924350898474,653.9027347600597,770.6931117316929,1,High Risk (Failure)
128.88573134608592,22641.391936155957,21243.034298295344,0.39289229583117913,52705.350361442106,21858.395093487536,8998.679287511975,45940.43276209935,23331.996225618765,262.6400656645327,8.578116256259296,18.474145852737983,8030.80509900434,647.1892806699102,978.67570537896,0,Low Risk (No Failure)
85.79500991601961,1552.2588689544627,17788.427187636044,0.6469394490806385,29489.72533470442,21914.397677091605,2934.418993683424,22545.07957266651,33885.90798423265,194.23686799228176,11.579934202983807,23.966809401883125,9600.546965138903,643.9394308510928,1232.6935859111595,0,Low Risk (No Failure)
180.55553770553547,27215.469201089272,17601.88008738341,0.7127530020599315,40638.67040234805,20837.223795942722,10136.660374761555,60155.859569243,22163.216445544385,170.25402646186927,9.2051307853522,19.650375599356856,9702.725318225883,1211.3141081213846,874.2737951662155,0,Low Risk (No Failure)
115.25471235918205,10133.063596309043,5828.892674252453,0.009094180302419264,58282.49248310938,15639.609003533767,11119.89309275889,16282.613206232167,53947.781905081574,183.19109633666864,8.676012868947836,20.778831828642073,5983.508251754305,994.6762132176883,613.2716369636687,1,High Risk (Failure)
155.00490111095235,9118.182561065292,12864.91731226398,0.29240449356051346,37730.058948136044,11179.940563497446,5251.682722058256,49464.28784644419,40540.857486824345,248.6848057304508,9.081694693153231,21.306088344085495,6750.659264851406,1274.1684374634615,1059.3605497129834,0,Low Risk (No Failure)
123.11620457120566,10519.397589042774,5664.786066335646,0.5643411678731507,37249.449037304475,21419.67527411073,11269.945317113137,15123.054971191308,10847.118009149679,241.1074353420692,9.790196612092169,24.75376309782572,5399.045435706632,1189.8568341529372,664.276962621241,1,High Risk (Failure)
148.7570885251767,15743.773322694185,18133.985938243204,0.3421413172970391,26264.779971091448,16322.532510998908,3208.3686212596076,46495.74910214396,67450.80924671837,150.42789973734787,9.577975774119635,19.319617631409216,4534.865459481091,1917.048351883799,1220.9517278364724,0,Low Risk (No Failure)
87.90548273783992,16791.407494230734,33024.66031379019,0.5487923123698846,31470.024648773426,24836.101066217518,4010.1815986830006,11711.710535786719,59862.34070915347,206.2791286093336,8.938929796569125,18.996243088774307,8635.369512815527,1156.130960016107,769.4906678167259,0,Low Risk (No Failure)
69.59092813780933,5008.730516774778,18648.052153923338,0.6354830155464882,19965.400250494975,12047.045780817227,10438.29416554626,26671.549904198913,25958.443963382007,274.57852401372855,11.71210665844024,22.811008567736373,9495.772746119228,1275.53022163949,726.5515583351012,0,Low Risk (No Failure)
157.24033956043561,11367.88652438987,18375.48902596153,0.650178125961012,53246.014579146206,10930.80574608951,9300.92322930794,69482.88849103538,27356.08048184109,256.01040978717504,11.568448562551065,24.928049024045382,7884.807321628136,1504.1269571775888,609.2868997121102,1,High Risk (Failure)
98.69636654407228,8991.436512966175,9087.00954637177,0.5517822283941036,16820.05776553503,19283.00628890087,9613.488873039367,56295.87633994975,58600.94195942727,264.59290405860463,9.111780264821652,24.685239922854862,8952.689432466494,1573.2901028796534,838.228981141862,1,High Risk (Failure)
210.67611385902802,15864.710261802138,19009.982585996608,0.44433516708296994,26737.602719235707,20430.32445110692,10605.099166001088,65615.32027449962,50742.53381269621,130.4238680460857,8.957062132478395,23.72762487643874,3452.6005850047964,713.2908166698371,701.3391788331878,1,High Risk (Failure)
198.56570800732104,8815.211453867538,28156.764389757634,0.4176052473023968,46847.47470097764,14962.314676610113,10200.477101829536,25434.160525499094,46731.051694712485,225.99419136589802,8.098007539625218,20.7814692126812,5537.981596948591,1324.0250785120215,517.6564506703961,0,Low Risk (No Failure)
201.78908354069523,24502.554493621945,12605.18566775044,0.8367173654746227,22303.853047340737,24650.63180123672,8965.511015699078,11310.8438133778,20960.67290342017,206.25188398344312,8.147277763691315,18.471980799028714,6631.516444315719,1876.5003472077187,1031.3383728336707,0,Low Risk (No Failure)
198.62770936635204,25923.602902172977,16170.98894685808,0.5647286003989948,39989.02007791759,21958.345742729765,1377.9438845728273,20694.56488542122,58828.491307390155,188.72147074080414,9.79728740573137,20.316432758593507,8553.31971869891,1245.3189774687548,604.2867026229408,0,Low Risk (No Failure)
82.34420076101006,23464.92597399751,29524.94769577,0.30062055985564207,29648.309173406935,26923.857224573927,7944.203633576411,43250.7547853577,13230.282518016998,291.4229952671182,11.582735035196626,24.115613221843507,8737.015237746364,945.1031581803991,1041.5119732513967,1,High Risk (Failure)
191.89607155989592,12076.782552312796,15442.866425236223,0.6771449373291631,39047.45839285951,11910.041408405728,3151.003671139903,46261.038178241295,67767.93994306384,133.60349739967697,9.467680896421788,19.8747420334886,6910.246465771661,566.3345025285951,1430.2164967477288,0,Low Risk (No Failure)
167.47341747904971,11313.037978469401,22729.600549044048,0.5719919453067082,40051.07616346392,14680.324900058204,3776.3982245116567,43395.72177541046,30721.940211448607,197.70410447263208,8.625873329292126,19.9469593738967,8629.511529043015,1048.603310878956,575.2945513304443,0,Low Risk (No Failure)
181.69210279284516,16549.57609918392,24318.26916007731,0.8313762837143706,59478.21114701758,23630.846326424726,10496.566516545608,50549.73587926949,20376.783628432127,109.19301594787203,11.353558922447307,20.896778888712653,3664.002822797859,1368.4226909905906,1405.4950847266414,0,Low Risk (No Failure)
129.242700735882,25412.452561835747,31006.207483975366,0.26983760481787766,20628.205775275608,27486.95676134022,5876.660527665569,37833.37522727705,14493.843933885732,291.0199590651929,9.854946841950698,22.950767700083922,4403.0357502854395,1674.0928510779825,1277.8292648002353,0,Low Risk (No Failure)
110.46510331968204,9330.473151434962,14180.183156268296,0.3844287330673829,38421.753647574675,19491.722824440687,10450.149697531682,52158.07603661337,56462.12723093009,163.86341326809017,11.122385553996242,23.18198331430051,3304.7324723156166,568.2731023495337,1054.330331601604,1,High Risk (Failure)
194.9839462482918,1893.9139422817375,31918.480164065655,0.5673399295689356,19614.665666609097,15626.768637210249,9978.542174940208,52244.20207402026,14254.17621527421,281.6076623340564,8.810591057221277,19.170565226651064,7957.668393624868,878.0986118853828,752.6023411536888,1,High Risk (Failure)
192.73003450928798,9857.882569905969,9113.095642229859,0.6010970613725093,34985.9782841112,12106.938692266396,3100.0540501846135,24873.17883904375,64221.98696130886,253.39869323062376,11.959333301618047,21.942233538775696,6584.987543503276,554.4821717182642,806.9526453054243,0,Low Risk (No Failure)
87.8574936534535,10677.422019693267,5905.760460115659,0.7232899483428163,21633.619491799232,6500.270471402193,5447.257199412962,56029.292357830614,47151.15638619305,206.94972445330177,8.854062173448625,23.305907977286523,7487.615380798798,1685.8953082311275,940.7070332486201,1,High Risk (Failure)
119.43476201990029,3025.995699855189,28421.53987119567,0.7021135501716855,56146.35841101428,25078.648153938615,6831.299500429812,22175.523553186904,32730.182855046984,132.49823162330904,11.626200032374152,24.495972607153448,5753.291947961698,1838.8646114521591,1403.6361428790844,0,Low Risk (No Failure)
64.05577668223016,6337.190009821956,33399.16181644858,0.5757618837162312,58578.66882130281,24924.53503768051,3164.5854162776745,13986.28565968528,37481.31216203745,122.25717282010214,10.732937793226132,20.953010268866063,6587.672232926223,922.7446534476517,1031.5491726585096,0,Low Risk (No Failure)
165.59744736546864,28298.697390820147,19843.830648256204,0.673516527472109,25544.35986216118,18152.27094459403,6581.021057328125,44594.94217033855,68027.1105107581,156.96848592254122,10.806960979698994,19.922394827203654,8932.733395816373,1832.9463435304792,1268.2010953414372,1,High Risk (Failure)
190.07771819457497,2517.6528617192225,6261.343882278341,0.8797669379095653,17673.133825084693,5680.710308421209,8943.656588092384,22764.930390910522,42297.48445263214,156.25814083509903,11.220857882067065,22.291504209174324,4181.514093649262,1963.5351960492044,1214.0213572496473,1,High Risk (Failure)
65.87541800013139,15136.567228455246,22975.269056317335,0.817582687849336,46988.55030598265,22499.150302615435,7317.243780509248,16229.296315372114,16299.479131236963,263.51245057522493,10.144478507844017,23.64941501472427,7331.09822092748,1061.9957533068282,1288.5074302322842,1,High Risk (Failure)
136.01605451067527,2932.2119539008663,34994.154324014045,0.3219107635818218,26424.547772553367,15609.780211810677,14324.996479930913,62564.504926312315,58880.61579791623,158.3338938296772,8.73608797772055,19.809635406213022,7916.493628435657,779.1548661782649,1390.8794660871304,0,Low Risk (No Failure)
133.4617209981218,2158.491225296736,17295.154343287824,0.9422611736585611,52084.68557348498,7520.3803516347125,6770.889836802196,47789.61785489491,44529.861842259896,187.16542266941866,8.615021777501946,21.50537833025688,9343.106618643913,773.2293385693965,779.5742861949745,1,High Risk (Failure)
188.58753230385832,14213.836933756445,8076.0361433793205,0.6705800508269354,29893.923124686207,5111.986922992691,3739.648430125871,46876.52492682642,65381.81439248281,236.1004885747824,10.242739194035824,19.412028341848615,3210.928724087488,569.4918883266112,554.294227628479,1,High Risk (Failure)
155.4948558267023,17697.98166254698,22080.05605328282,0.15916753447981447,26651.292806912206,24896.607854430873,10686.654069402186,58636.396751742344,61314.34345137813,211.75109792981175,11.912889799232664,21.197163777111516,9261.89863616562,1652.9132298782306,1207.812005156191,1,High Risk (Failure)
120.86720120120998,3488.0342620851948,21477.53814133683,0.9604797515609774,38030.7712515536,28601.062543395197,6832.303535564406,21228.16838849962,69667.71086465516,139.86856794243855,9.433737422672332,22.188283913890206,6145.249830650235,1770.0562829596918,1430.4999570557893,1,High Risk (Failure)
101.57011339920547,3148.1723091029844,6283.498047418036,0.11114782746710894,34843.89248008839,29583.039940930892,2915.2277298439876,61708.452757862404,40733.35839444205,229.04866847334708,10.122491252909423,22.375099395345636,7466.706578292811,1030.5480241659957,633.3150593227235,1,High Risk (Failure)
184.273689112829,1006.9891358689019,31094.370974417692,0.3811433152929786,55812.570141689874,23745.90558461012,10884.73642737533,47844.21276202618,48985.22230580471,138.3983564258625,8.374161999346889,18.229265235726505,8222.198494515258,640.9795182800462,1304.55696158721,1,High Risk (Failure)
190.33195523702113,11267.872308297729,30570.96047786131,0.7842947047887264,37726.294712414965,20780.25342121953,2104.76843738986,24890.375188502465,29473.30085441515,224.6914249202182,11.401089655739984,22.998604144534575,7045.839391829895,645.3817240708171,1291.156551726846,1,High Risk (Failure)
65.76301092662823,4954.762045854293,19041.963812786937,0.4067423871913114,21566.80408165499,19353.88863580918,4179.026433524265,66578.9254912587,28023.76657562132,134.29418918772663,10.130637951102923,21.61406383205075,4914.9914943570075,1402.5685452166572,607.5583605950399,1,High Risk (Failure)
101.3013492321804,8153.036958498557,25658.8786970163,0.5162330979358292,40438.15842830539,13191.994349060456,2817.1972113867596,17753.75815370371,12485.122723202467,272.9051804755637,10.092252803721005,19.069271001898063,4951.721239732196,636.1114133842968,799.4154946451708,1,High Risk (Failure)
124.32435470211851,12807.764655546625,13668.734574221515,0.8901563625733944,16914.45682184554,28173.017307897248,12519.860527452503,47038.012144831526,54258.305285017384,224.61834113095378,10.65818818189041,18.22515783811372,4249.77413286943,1436.4561576021943,525.0362832298098,0,Low Risk (No Failure)
189.25535071060136,15996.824868308502,23296.06204956613,0.08220158948193368,29324.634587532026,21093.47486499801,10609.269003130341,30675.56861399004,63044.59186027243,106.89751728639342,9.808199551903298,24.078990632172733,4774.691676473803,1799.1446865777496,783.4653869239495,1,High Risk (Failure)
158.04733368584166,1840.9055857424923,34550.29243488339,0.13896037074221246,36095.043222645996,13591.61403309943,7081.53386498408,47823.39798050496,43020.75537750912,208.63859488193228,10.970370972446139,22.745407102123004,5887.9589499547465,656.8045654550447,1192.1078842874686,0,Low Risk (No Failure)
110.71081948276502,25947.186518346472,31556.869526335176,0.1727553939907227,41336.44018071822,13259.261831720378,6494.307194620641,54267.153361179895,18698.676725605408,278.17350520065503,8.83229191071094,18.243781590687888,8663.35264052198,1416.5682805373112,821.5934246873084,0,Low Risk (No Failure)
68.3612606857638,23987.211825796894,34227.2757656521,0.02178894976225554,51112.591523944815,13349.605456650039,11952.752408335511,46249.20823992171,46533.33312443076,120.68163219269653,10.921632337934856,24.573789576171162,9390.66982869048,1103.3924294663234,1372.8558200667899,1,High Risk (Failure)
202.09891022944572,28817.82762439084,11934.21026029543,0.22390813154111433,47724.70596083891,27017.720804986297,11123.997909955126,10836.260722607105,62081.807999382814,209.66934701260004,11.459964872613192,22.651585274430055,8315.22765221569,1027.6876300343813,874.1150819912798,0,Low Risk (No Failure)
65.37817602932522,8264.00545574314,33795.031441966305,0.9282453464380757,59133.42263513389,9617.344418558154,1800.692247339319,57846.65184767379,38569.244314773496,165.88981385444862,8.279946040979437,18.782604221972257,4004.3872249051396,1791.343051355309,647.2794039564667,1,High Risk (Failure)
199.42624547053668,4029.9291858647844,6296.41098649995,0.8215398609256521,25911.583412802785,7748.364251421157,3906.1022319612243,38466.93427374845,14658.46465276132,167.41119798662277,9.610760593617632,24.049756110519013,3978.238136640167,961.8817866969209,1269.781995710292,1,High Risk (Failure)
119.53316079406335,7148.80766456464,15913.581547971713,0.21824883251157134,54568.54709652115,8240.218523854119,8723.606791251737,46273.52546150872,50780.33602246026,267.1683328843985,9.995861150819009,21.62214396681537,9986.908598636524,1040.1271675259986,1334.1514662922916,0,Low Risk (No Failure)
142.27751014617786,2531.9739045769375,31783.878187696573,0.6543933648305748,15996.262332396565,27763.806270539913,11826.320998158702,27897.652183595383,25139.351472584167,227.36259713168573,10.479445068630692,24.128345679579787,4957.352587097774,1708.5805836756463,778.4125943445699,1,High Risk (Failure)
177.0543234808531,17738.413610475956,18648.809521790332,0.7290376238201884,22520.618768345972,12735.027510700884,11435.792270735663,23924.92623081428,61485.9701662943,139.70696267008216,9.820435275945613,24.330865930417154,5432.726769134295,1570.3767072671149,1351.7180538023115,1,High Risk (Failure)
64.10273052902971,14759.142215491176,25287.012051214322,0.6120470796577556,52200.73622720268,15269.085997268892,6068.343376008374,44660.71559840601,24740.159707254563,157.5122178001452,8.85101863647655,23.119590078684737,3899.52786960746,947.2960176633658,679.4268436357721,1,High Risk (Failure)
125.72620959993787,14566.269949082836,23391.56077608436,0.5346667548928824,50726.72738557292,19025.36132574831,5606.831797416904,28672.310435456897,55892.225157500805,192.44395409847095,9.346549224933089,24.13602600870921,7099.256143759661,1042.7112473898915,549.7408636592999,0,Low Risk (No Failure)
134.1590470080916,1749.3301943803244,16957.989881553673,0.12261922045743845,56614.590889615574,8193.151615578236,3044.213007522201,30207.38846622949,30014.29968649897,242.5387810705124,10.239407427452475,23.83792309479995,6431.617141408025,1942.815886807883,1275.601404022104,1,High Risk (Failure)
84.40624686628182,3904.494927696241,30117.19998546378,0.2764105410936747,55068.7413369767,17439.64259267173,1372.4032264820758,18484.216654861317,19046.13841343626,120.56584890533735,11.050772659412786,22.089737665426384,8536.77517953112,1807.6764263740004,1017.8389675652312,1,High Risk (Failure)
70.00420731885532,4420.221571352771,6992.492134443048,0.763246573514173,23074.474746096697,22841.804675237177,2510.827540284129,14123.692094343987,31218.7585607628,258.8488635188463,11.76679169368202,21.412092500513236,3402.333991298716,610.2968290134767,1127.3501420770522,0,Low Risk (No Failure)
72.31678557260688,29021.95463469739,10028.646915217534,0.1470699045503434,35628.6224306489,5242.379208359364,3369.2232326017765,15920.335961600493,68195.49067829322,134.97070662278585,11.807905684005284,20.10853218511742,8256.014494177798,595.8876632703451,604.3132011207234,1,High Risk (Failure)
177.49850823875494,28344.468630360938,24096.334657301726,0.9654909384377848,41295.193623650484,11677.244429389204,1964.3582790614028,11643.986291910409,43700.628725554896,123.40337411421909,8.892200489718348,20.1896294785862,8313.801498277098,1379.3225827326514,895.6703575884991,0,Low Risk (No Failure)
202.58289819169138,21345.392702485326,8966.34568460899,0.06950779651519323,17341.343112743027,12962.964414632104,2849.2186331105895,20383.221267153007,18807.87615650001,291.00186498567297,10.341401156016948,20.14305853875374,3431.4778592724892,1960.3540206897565,844.8110346649073,1,High Risk (Failure)
177.23184809444487,14723.182419647563,30411.407566116646,0.5257888435355464,50319.5959274677,16379.081224189911,9608.552942706228,33846.5156354303,66877.78108338598,172.0321101066748,8.367312038339804,20.888052700403524,8151.701206160521,1880.4687940608417,867.8472249940969,0,Low Risk (No Failure)
72.29793204418615,16328.941841685828,31439.74668394855,0.6907228942289688,34645.7005488866,15931.362517077303,2352.6996624587464,34755.93981078573,53330.46228486299,272.9417910122727,8.27303053439926,22.753218436543584,7817.588151654124,559.3348023942108,959.3429685582921,1,High Risk (Failure)
218.87436737908806,12866.29503629617,18063.08386706107,0.08245807798395388,51298.62547763669,25108.96278340831,12079.077499207739,25516.989373535955,58875.54241379306,285.12378354969735,10.286453071177592,18.777643207067,9418.534661178059,1383.6678569950122,1255.2318563556685,1,High Risk (Failure)
98.3216271855261,13587.41718586724,34761.15421335783,0.9534269834008132,22926.35102433795,11139.584206846659,11250.354392238634,26738.497227548323,66955.94293291212,286.7881797337461,8.19410092031548,18.09477545210451,8435.832176125283,1462.3856618732761,535.4436324620426,1,High Risk (Failure)
178.7034123133944,20736.90969464425,16626.990148994963,0.3702294858249735,58903.74235939352,19232.27817427851,1885.2049951597523,33890.66707882414,50767.06703298439,239.4537019784433,8.00607900491989,21.228258578724546,4138.042014304645,1796.1720405598792,1079.157627911492,1,High Risk (Failure)
109.15462672340334,18673.913622491087,23488.75370763383,0.21886849232954686,16767.76570020557,22983.07048277855,6020.685846635344,67624.10913164911,45362.22855591942,221.37017063783054,10.27759350976263,22.234199257601745,8660.928253034985,1514.9247970840127,863.4726889934594,0,Low Risk (No Failure)
145.4347956076422,6716.075125885914,9358.751358973448,0.8053576701617757,59446.46367424872,6471.804377243771,6207.374022581847,10201.651310915759,51562.375207924786,268.357649965074,11.52041817695664,20.971911081187024,6827.21405811526,558.3268908785096,1251.9820304355294,1,High Risk (Failure)
142.37077662875043,25000.697579125444,19009.022274913936,0.48168776866153795,48534.90570111831,26005.824488690687,1593.0293970144928,32126.13282004826,47847.839191971674,189.74776362491002,9.141556258567249,22.997924930000494,6719.701448509419,645.1292568397575,1120.0628083546562,1,High Risk (Failure)
87.16126481400651,22754.66415568343,24575.806332512566,0.616838376784242,52419.96096817099,15578.790437843478,10365.284257225094,68800.74253651392,10597.054542970462,287.05388918328316,10.668238185286912,21.228220530060668,4206.975444102192,1553.5848446837335,745.0275629733901,1,High Risk (Failure)
87.28385978996664,16441.656328633024,34546.14698340806,0.947522980551238,20062.408101624842,22457.17316576479,2266.351337864906,14559.89464098456,60577.884266807094,289.9165697891504,9.096824529161003,23.593444833139387,4124.579322017766,1104.8627377639807,697.7050080587572,1,High Risk (Failure)
199.48537065475227,16826.740713603635,11957.033653067447,0.9587846047250311,31138.659054355892,12979.692753096024,6889.3866478916625,17760.43793310986,69993.43387788355,133.49399917370104,11.92884813691403,19.87648799437329,3869.385321441174,820.7327500518894,599.5495667365467,1,High Risk (Failure)
134.00555458130367,13703.27820125613,30144.7760420326,0.6087304825848486,56893.781140928,24797.411291545202,9455.238821815108,11021.345450789755,15401.141311130163,237.4613804201182,9.004256996727362,21.989815950160974,9207.710797297044,720.2160525370816,562.9105436104803,1,High Risk (Failure)
209.9565579578322,24278.224754744628,34705.75367755015,0.6837648247778044,22240.737778357514,11816.38157883571,6593.120306020331,49567.08319152698,40415.19757394325,269.04235727568846,9.848132851659017,23.76843115016727,5785.990870157823,1580.2503563517148,907.3882862479438,1,High Risk (Failure)
66.53897860263662,21744.347005344935,19217.592827335757,0.20152700291824244,58679.32348715055,6340.8385256112015,1702.5028768290863,65169.53671092399,42717.525850380945,254.95724708617777,11.637066370950244,18.437892812191848,3554.3347077392955,1250.0357328337482,1147.139536527076,1,High Risk (Failure)
164.36666377471033,20551.421516058803,6504.320692154306,0.2038194937165113,16806.077269572423,12066.295462646802,9679.633525935607,63751.38554327331,32097.475309522786,184.38226242486462,9.951309231404855,18.192167836429523,3713.2804341296683,1673.2268215879806,1078.2306304175418,1,High Risk (Failure)
175.53057027260564,24345.513103804205,8795.807421472271,0.0056332783813825005,44078.42328066967,14247.655799910826,3450.102610166566,10784.154103875388,20745.354504261602,224.23925715737897,9.68731043771256,20.455644954316007,3480.753510354933,753.9696220158534,663.4200131199254,0,Low Risk (No Failure)
119.37807014882046,4487.857930729599,33591.39758479535,0.34155123185510505,26730.470707551893,5572.031850492097,11300.852688245404,49460.48950771873,29894.651778422027,195.98476117644122,11.893625168186677,21.566225966694432,9506.506322733667,1573.2438232344155,1226.8004620930155,0,Low Risk (No Failure)
60.001861560858586,8804.4728265023,6169.170919052693,0.9032066679157894,56652.425176062185,8650.259177766857,7710.298200585002,36419.523888869815,38811.93935636505,177.65519594121648,9.220569614334526,22.743932556433695,8812.285900966683,501.7983866797549,844.6607174863913,1,High Risk (Failure)
195.99349288051286,28423.26065472091,19046.79212277897,0.022220639519938357,50664.17517514455,22088.757926440183,5151.521821804229,67940.3290149995,29305.375017858845,213.82156892867908,9.657972227553834,18.469621796562148,7058.103286066913,506.8458755338175,1228.2017909462609,0,Low Risk (No Failure)
117.3725538439797,1395.555529240551,20499.604677837284,0.8422820987482158,40121.683406186974,22796.255571907655,1516.7743759070559,45891.548910866346,26845.02410378795,245.69727098824598,8.675315529364532,20.19116064189682,6406.420338594733,1581.6827000094106,1246.1598812778873,1,High Risk (Failure)
162.49842936782198,2638.9550331059627,22774.592138957752,0.16247915337690344,22358.679387365417,24214.77396924517,8799.460827572484,53569.00536596361,44288.95081936447,167.71884979748634,10.519254654896722,24.12727737482561,7033.080074244234,508.06460753564056,1129.7523152110284,1,High Risk (Failure)
152.81421354711273,29221.19663138035,28369.65517698826,0.06204526042182956,39610.90586693527,5650.816245590141,6417.927337320094,55132.7216182787,52778.42137858733,280.4759824921118,9.408865009469705,19.549304747365408,6191.492679784151,756.9134042071349,642.2585688730503,1,High Risk (Failure)
131.84620286882014,24511.183491681968,30846.928527498694,0.9663972918742872,44402.922041549515,19490.107195747383,14058.034696120178,18719.688519385367,47708.76209876343,242.86280927004816,9.539186161602853,24.478568044629295,4719.652656969168,709.0156464409505,981.8143524031726,0,Low Risk (No Failure)
141.241254110171,22561.57353759318,16489.0103319294,0.6870884721037042,44158.39372074341,12404.068256518767,9878.274780499856,17296.110633301276,68821.25738900248,214.6065200730523,8.505336843036591,22.617174529331265,8791.721682555144,1770.491308241852,1242.056123157058,0,Low Risk (No Failure)
147.08063457819162,11834.564126487714,17358.790396873963,0.5046246829316976,23688.25232085291,29925.577600493627,6544.586822948101,47437.7434597136,20404.2782626783,138.15583470001562,8.416328857726196,21.10653912248479,6235.004663434998,1975.2586344530496,1486.6367801502975,0,Low Risk (No Failure)
173.9419273408968,4908.787762605705,17284.888350366557,0.11024448668056652,22481.674273562843,15467.314372251265,12438.462381084704,33031.01771188652,44986.53006539498,236.5100985592413,11.652792432983468,23.380666263831152,8160.30741676161,597.5922447664967,1397.3173858567038,0,Low Risk (No Failure)
131.52888700902807,16711.049278289443,18490.39552655472,0.4049970388769477,44632.790123657825,14712.758214002784,6469.326585494581,16513.300787179705,57309.17466774611,260.97081897896345,10.56161255299347,23.432558034709935,7176.705092275758,1502.7592505991665,909.1704621408524,1,High Risk (Failure)
196.80483225918962,14259.682168966787,29112.55922912245,0.8075115963051489,45907.367808819705,20907.821001906297,2549.041873306859,26869.592484008157,47991.068996119095,145.29406480425692,9.029500513361285,22.184030111555057,7188.654276793831,1800.4127391187676,1364.9718345079955,1,High Risk (Failure)
170.54143624813165,12077.421318425433,8366.041002969287,0.661349840083063,51804.38207333073,5760.713391616241,13006.351429993021,29264.392001423726,38578.720570567006,286.77285753083135,9.339860085967647,20.086669951585,3197.872466376133,1116.2477242351983,715.5028627129211,0,Low Risk (No Failure)
176.51461577789752,7547.897012368245,30017.498013831108,0.3334570205316473,28531.10340256839,21686.07940454687,7508.945059621869,44150.38166844078,40530.654568349084,179.12255950545097,8.059065486381984,23.33945068107137,8185.9502860722005,616.1153056240877,593.1560336261457,1,High Risk (Failure)
99.57445053105333,7469.610534915319,13620.609852259902,0.8792490430777847,35206.31605136717,16822.773667208152,1908.8840347570926,56645.99275510521,34583.055472336135,183.21522803564926,10.527097570559054,24.770045918138926,8252.941930288858,624.95943016949,820.196635512778,1,High Risk (Failure)
159.78380452644257,5922.996448006939,34218.06722313282,0.9979093217902862,43368.721278860336,10656.557981693295,6985.825210361328,14716.55941157868,15796.90411237971,185.6860584797089,10.025638302701209,23.112650037925373,6555.534014520063,762.512527693972,1006.2704942763271,0,Low Risk (No Failure)
212.9039147626383,25910.60533993139,11725.168302407052,0.9907239105537778,27464.540180319844,22024.987854001305,11606.283811759107,38802.15745043702,50124.177048113816,225.64260997040338,8.125351105627972,23.557434308283142,7790.833224943311,1357.1871815594725,1113.5862240850151,0,Low Risk (No Failure)
195.50195590863245,4822.500831426316,11319.367929066102,0.11819681051498543,37629.396494661305,26072.316848672417,11193.139780076312,13708.065566774821,55933.34326247566,185.89654981622618,11.404513697164248,20.323587942406526,6953.190291580644,1635.257042314436,870.5483341869244,0,Low Risk (No Failure)
120.83129900573712,3458.218478363662,21306.03135122371,0.23902563680366917,52443.97429563738,25911.909515410243,14584.57341692224,24814.929210558133,37384.722400160244,184.07871259915962,10.719796693799001,19.70123487569271,9734.816960796976,1999.4283426302654,776.1059160283506,1,High Risk (Failure)
111.09018201446638,20945.306984606308,28811.52277355637,0.7478922540260833,25066.174414412133,5833.219874406399,5051.845327885604,20374.5227390707,46835.31117601019,279.785517450185,9.97648809530197,19.2352381350509,6658.993351037709,1446.4486252588185,986.9692094347693,1,High Risk (Failure)
141.86839073850658,6411.112809321859,11596.489691220473,0.9776153675237532,53002.946322027856,16100.415760567017,2640.1851636758456,45982.28306116954,19070.08563872181,241.15754661194444,8.847010754592537,19.60542661379111,4332.751252159072,1062.3888945343206,1144.6456608877697,1,High Risk (Failure)
122.79121718762167,19233.286436739796,28284.555923168686,0.2570818218513682,35364.959787685555,21305.948609168325,11217.26915881686,58738.051008944174,31379.57760852508,100.41040830412824,11.748656037914582,24.862315472148985,9271.793991358361,1488.6563298651024,901.2849780286078,1,High Risk (Failure)
91.59527837758998,14016.689603908088,29422.04862160042,0.6624984583613046,45051.38573574894,27635.37033340255,10603.739030105393,12611.88170728107,56792.2094742145,284.8853909423325,8.980602386975448,20.960098367376627,6913.692586125737,1709.925538316725,1267.9409322815422,1,High Risk (Failure)
112.60025764600131,21343.473942489814,21615.082475066618,0.5509126399478858,25067.657962647776,21747.850469910903,14550.053182492084,61526.07108184061,34245.851510019886,118.65240896926483,8.678815166046439,24.624692098472146,4045.524990689219,1964.3540177167101,748.6836670637935,1,High Risk (Failure)
99.55697190450833,7071.103582138864,32525.741816910442,0.08828249858491644,40027.653062238904,9497.854915267455,2042.684764646498,47974.534896430414,28287.52804887747,181.5098860172169,10.225957530491186,22.96813110913452,7145.813944415987,1894.013933643137,1008.6779247574514,1,High Risk (Failure)
167.54168758494058,6337.298389456192,11873.49841734197,0.24746772950133744,35646.104191123144,23128.978782495742,7984.362777801219,54979.71900750249,62542.25981735772,223.93412363750548,8.385677234698464,22.59488592142291,9746.626189177441,778.9213569008368,1355.0109273574435,1,High Risk (Failure)
205.2638070047391,4568.511584119422,6741.390110555114,0.9434273662502832,51224.485153925496,24051.0876971247,7527.839367479132,27265.014076339085,35963.86216811949,137.49077853711495,11.654822970246547,20.275419026585784,9534.75824017101,896.4691007978934,1480.3497053489982,1,High Risk (Failure)
180.82137879123135,25549.50030057875,7523.302979290571,0.9971494397581668,54349.79934301723,14029.085056777483,1512.8091130921455,29453.445062342762,12790.063835522007,143.92140863691776,8.544989669952338,24.485843424105042,7946.262175568823,997.5996893656508,676.3577421110065,0,Low Risk (No Failure)
70.77609623500348,21225.51689987858,23228.707276518162,0.5594021158982408,28973.830620390258,21073.53030062459,6315.48091067575,26872.656125460944,18311.920315637602,221.82570206752874,11.509296183698991,23.864750276675117,4459.763420830235,689.2019914857026,1022.4070055934385,1,High Risk (Failure)
120.37088863411086,15889.600416648784,14293.174541721472,0.4841642473920018,18117.82056499016,19238.941616948043,13802.340779718043,36981.37221909819,49548.9181257377,151.8858274846104,10.98136176686707,19.232926106383857,9401.582061832665,1169.0389932104763,660.7144436709764,1,High Risk (Failure)
127.87552147951621,7192.7427802199,30049.08648443557,0.9886565549140125,44271.55793751769,15133.117691915933,5040.075940871089,45245.971533063515,17097.198925186283,133.55606634796408,9.359529700972644,24.64069105838456,8198.910008108738,1310.9858369919866,805.9463517515865,1,High Risk (Failure)
142.25527080820154,19502.093821271195,32655.36498643355,0.8206481800493821,38664.083770272046,29132.806655336622,5264.206017233035,46831.364165240484,54705.10408708149,253.25143719199588,8.168200345208183,21.497444402255795,4217.230416923959,555.3468142628843,503.5807675759023,0,Low Risk (No Failure)
97.15403122349076,5744.869920010012,18546.390829191696,0.4715825960942326,43981.76726368845,20262.732880949865,9752.35525261872,10335.01184067934,28384.109754877605,137.8799307212415,10.15981419648665,21.671873740720613,5324.083369600459,1143.530739070155,547.7617142009241,1,High Risk (Failure)
159.30567677193346,11829.893143217629,13878.109030146235,0.46472375625003737,58380.93253307527,21439.54717008322,7666.058124947761,19218.10497366666,57151.64164360182,104.60467015766079,10.497236418368391,24.367901556915164,7478.900044510242,1591.4489320782293,582.3968688968661,1,High Risk (Failure)
159.06763765853387,25279.35514580226,7962.589060450651,0.6836725217395068,58306.728943652175,13312.484316990958,2850.5091606446936,40958.3557762591,55484.006990322145,289.4796072659162,9.13810326831506,23.13853530348097,9708.29975352325,1985.9519253187982,1298.4546469315221,0,Low Risk (No Failure)
216.79525269741612,28014.787806089087,18621.659678286473,0.5914074128989139,29479.675661182366,27419.046156406705,3353.0240622613255,50063.3801906748,60564.5252873308,116.61349140219714,11.39976268263068,21.601520924901603,9724.521306211816,1484.946249470876,1424.215951609669,1,High Risk (Failure)
78.3892795295307,24559.996071093115,34102.29856730003,0.965510824567933,16288.426713013869,24510.591724286915,5421.148182696323,55974.58805255285,51392.964483661395,297.98675310723974,10.427985909997947,21.31175264778983,8289.038899232837,1079.08369710376,1162.4446147124654,1,High Risk (Failure)
188.55694886157576,15821.720822699543,10824.580898556473,0.6555581974173488,25386.527911197714,15522.463061892984,5090.013930874166,35553.81184813402,61540.01697660223,149.33546204667567,8.099385646341812,23.541503355741604,8294.253211957133,624.5239055322553,998.9467224428437,1,High Risk (Failure)
153.38497789613953,17800.088680865367,20858.895126098578,0.40759833383218125,33222.56013594877,21183.671461392587,11484.463182462823,35266.27558463013,60077.48439451832,238.48550274343435,8.673957353301558,21.891280447843414,4527.544786203881,727.847945604738,1238.6210233842016,1,High Risk (Failure)
218.92080246767424,18565.277973336393,32565.56153776729,0.05365216400969075,16929.90419277349,5602.8089886956495,5877.777265609194,29101.62478866881,40864.20189713735,245.69971532815427,11.995332950532845,21.3032422335464,3259.5525740853063,1705.1786581844683,1280.968604257937,1,High Risk (Failure)
61.62098944443894,28278.5599763973,10821.61640736815,0.11464780302217648,49403.245246625935,18329.43984400737,5599.973398745632,43474.2453207017,14175.636126005837,291.30621180316064,9.207119799370373,21.565711169265295,9791.581433219288,811.2345114205267,528.5376095545922,1,High Risk (Failure)
107.24823641149325,9045.375309228395,15397.339636273377,0.1271192918570485,24707.557070952425,21068.68211148439,10403.873033576017,45592.44452949321,63358.974594943225,155.48463305312424,10.346656812176327,23.78375794500772,8660.873220695019,1929.3632236611975,603.4716035886721,1,High Risk (Failure)
181.9042900167792,4891.870363464158,32397.36858464948,0.8964852726424966,25015.79000798858,29492.937509644667,6583.418258031518,18507.462485743003,30028.184993568702,210.57462395906305,10.448903437247036,24.657767875736948,3530.2084063898237,1721.5950801407525,508.90909441289347,1,High Risk (Failure)
70.8539294568275,9619.209301507784,25017.344858997185,0.9095385699133887,15526.618206490168,11057.624867412687,14666.174061753942,59189.355267896965,37409.36058695695,213.1657793635594,10.275804362489223,24.32249749088125,8505.268970452717,1589.618319869348,597.5953823017323,1,High Risk (Failure)
129.3555572409015,23859.98103695406,20504.01784071872,0.636136530428131,19207.185524449385,22108.865031207813,3240.7423544462276,60735.97204866884,37154.20271698115,116.36370887491687,9.140047996887365,23.658549952314857,9175.982736358805,1152.4899959500522,1369.2024680654617,0,Low Risk (No Failure)
120.29870085555017,23283.597939514617,28245.495396022972,0.5784477558526964,34798.34172784614,13030.407472409057,8347.03110611535,25396.146086558205,58235.73420580591,274.09080646475917,10.54812490204362,21.0075246966861,8832.462041701137,560.1212589418546,532.286727399302,0,Low Risk (No Failure)
147.74706607897002,4797.006311676547,25446.050006254125,0.23716768129859644,42940.036706970815,23422.71237114604,8834.23397474745,33625.56827743756,40213.496432602,125.01256394424998,8.645168418297773,18.801035894879025,8850.02333857217,792.4757933355324,1144.9550750930725,0,Low Risk (No Failure)
106.93654743056157,26784.785535440893,24874.906195528354,0.1528281777258923,28649.540410694695,26073.200313582198,3082.0179646014662,28745.11643330316,34395.57161883918,249.7815286587029,11.08752232454594,24.996185557195947,8135.56184471934,1183.388149372736,1014.5793344442002,0,Low Risk (No Failure)
158.60807774811585,19244.409780393737,34253.057033006015,0.14772352839713165,34500.80431187877,24326.770314209236,9313.048150248193,44751.466981920305,34524.647110450096,138.68551480057977,10.25465044082485,21.212536420412313,3777.9397992494237,900.0183769921575,623.6376162487012,0,Low Risk (No Failure)
79.59965791455828,13027.338273369818,17191.995585634922,0.8622925295542114,45142.912891617525,21703.7608029052,13757.93872395864,61361.05940505014,40109.891294099056,219.1921269023522,11.977872011783019,20.416108887642956,5548.300624331888,670.5657958601644,1004.6846646081359,0,Low Risk (No Failure)
156.0032876990886,9788.907074077948,32980.457070815064,0.6819974472807335,58778.59782681337,8850.071838307495,4465.637920040009,43028.49368368963,18331.117507012117,142.3001529628932,9.873381793619108,23.448290095758182,7297.240675555065,1155.60649090168,1206.7806742984264,1,High Risk (Failure)
147.82554106241147,6671.548765944169,25536.332990939718,0.8630259611201758,33982.65295657322,23825.92404877285,12775.93455787679,21308.98926991251,20783.34471472892,182.66864888047672,11.855501812647052,23.12454088809605,6852.898611598912,682.5321840627005,875.9904701178873,0,Low Risk (No Failure)
185.18812995404605,7664.955211983546,18263.11238623337,0.027161301453653364,41554.88484421028,7830.464437548169,10151.787698843427,41017.786149012274,43854.26130153936,287.21095408310276,10.711655040963878,23.01287374565399,6366.758553781026,1534.4026975260083,1324.17851348275,0,Low Risk (No Failure)
144.02614138672962,18602.220371953696,26244.420037956716,0.8137482955675476,51785.22815143353,12993.861247818162,8334.547253498415,13837.766322637097,63038.45792271096,165.45531217095612,9.449676257305619,19.706894126528955,8536.728641899213,1660.254688451392,1131.0155148322024,1,High Risk (Failure)
194.71976846240983,27378.01415655954,28766.51099466055,0.8270098816469236,38153.39992297545,13156.887278780967,3839.0249755676214,33235.120890740945,32971.848158354296,244.85019143280022,8.8130550097511,22.63800700502815,3608.3312031046817,1117.5608379053785,1179.3839301609719,1,High Risk (Failure)
160.19525146102646,18594.76985713011,28199.12120343126,0.440218972971002,57705.21540027481,15267.204291894297,10230.63381386911,49596.81949127449,27208.365122815518,220.07088823737263,9.330720420718787,21.43977660131077,4083.230680356992,606.9695050213845,840.5815659089687,1,High Risk (Failure)
213.1916830460954,16880.866918958665,5036.108417270537,0.9039761718765772,47220.61384197796,20656.418258016758,7701.615793523942,42971.65455410318,63331.17332021047,198.89424689810883,11.646949094981126,21.93799365183403,4961.090742677624,1913.4734192166416,911.798363586476,1,High Risk (Failure)
139.60637634337635,19959.559765728533,23697.72529019394,0.23747669500562407,19240.264002339045,29992.39023386901,13347.407359388257,11284.932320241141,17663.833553525918,160.72779656182564,9.561847673327096,18.394988528100587,3821.6350557657497,1652.3989829727452,1052.9867255662884,1,High Risk (Failure)
212.80968183759822,6619.88477067729,28702.22380889824,0.8042337890322266,40427.32138306815,12264.854012490185,9711.328617940271,60038.044573080435,18604.959887260728,232.57718885661996,11.298845453954662,21.587788463622633,8445.640398783082,990.5726313287778,926.8132713166169,1,High Risk (Failure)
78.25532558206933,8684.044785107848,12147.8724001979,0.10521847414182428,38480.523506000965,16066.946863603538,4721.1476590430575,48319.84462958073,21454.077800780462,151.4097462799589,8.885397878503674,18.671364986900493,8319.127338279748,1160.3299179878904,1308.9192879339612,1,High Risk (Failure)
161.0496352148033,14624.325322011766,16154.089738236073,0.374653091653261,28061.304908590806,14802.83476143796,11865.399015659754,25396.01340779416,27724.036662308336,288.65050093170896,9.142561398654513,24.81730199741811,9527.52487360089,1701.820064179145,830.3450090159695,1,High Risk (Failure)
106.91372347169033,11250.722569760897,25933.910991875717,0.15148211302995818,50727.24179393803,15413.14122098899,9990.295841879904,15907.614728762896,64581.21657830583,154.26288254190715,9.691221629274546,20.746003837300762,9972.918673377582,647.9314738808675,1431.2555832051335,1,High Risk (Failure)
187.22979116299257,26735.311525740446,32247.75664031198,0.8503627876578504,39193.38044715952,16447.544636953447,6373.286003392713,14126.435969842758,66928.47856012764,209.3411526661999,9.230086480816214,21.94310645588499,4751.460210193958,1731.6430052927974,1494.0484437835112,1,High Risk (Failure)
68.0361618342358,4288.225771024603,25345.47753767204,0.5534899305004339,54852.98205565262,20411.003561691352,14307.663028090523,48350.24931502924,17326.686572787148,138.06381261294248,11.89344821073675,19.163403971564154,3852.9383965165634,1419.4815827334169,1220.9729215852321,1,High Risk (Failure)
219.41349402035956,6816.375128054027,11094.618115699042,0.9416892084419491,51803.08993771936,19243.216733477926,6641.865592114557,47074.512592048166,17326.287557822627,256.1325556681489,11.428058882082066,20.660452580668426,5288.554797358756,984.2298355341438,1396.4107553091026,1,High Risk (Failure)
60.51492217668459,2405.4627417988477,11928.210776622012,0.16285829163782772,51285.79391124452,9760.736584744045,6619.174783582181,56409.63363237762,26031.123347031495,294.42522334866726,9.667669836771825,24.589186747724355,6861.023184103513,1517.2078629119394,1133.6205287851276,1,High Risk (Failure)
114.01842742458047,1464.8165371985706,18809.64170172195,0.028992744998979858,28964.85032105534,21689.05254465429,5312.152567873832,65115.70786605443,54090.48945112385,293.27707707433785,10.336395491856337,19.35886382033515,3800.976268665617,541.409557074475,918.7157296351502,1,High Risk (Failure)
192.4084883638475,7605.5719069162415,5042.546604017464,0.956508746234745,35642.99972115339,20249.418043379002,7014.309899082717,36416.77140488943,15460.054341083145,190.91347942263758,10.576221907058745,24.32352737497686,5803.282225850994,936.2416507708988,1447.7401861978292,0,Low Risk (No Failure)
146.1431966859132,26652.587624689615,32786.8235061749,0.3267236831445983,47132.195972211746,26862.55230706694,2340.683765576956,59308.08716549251,50630.74884626534,233.54996791017976,9.558616161487363,24.842149903702293,3916.4028944650495,765.7189616585954,725.5973155491881,0,Low Risk (No Failure)
185.610227367429,1076.3325118080572,21311.042589347526,0.39173509628512104,47872.5075551221,17745.202021195662,5045.14204358558,16326.045582048358,36832.794530752646,216.3604221117094,10.102579455206273,19.746815143651336,6673.572242556451,1423.1172431248451,1037.074511521499,0,Low Risk (No Failure)
164.03217478370453,27194.935044928512,22970.37911343837,0.48124345537683655,53924.98256727239,21722.84818085694,5754.489799449605,32009.706046535764,38817.01233335627,129.26142165020022,8.092609734438565,18.684806934103218,8920.309304925991,770.5227367410414,745.6431890731119,1,High Risk (Failure)
193.5915529111046,24898.74022404685,27601.643447595074,0.12965040049112864,50474.73280295298,22443.69999202129,6411.8143619348375,67203.15011628324,38355.386764933966,284.41639615374515,10.930524883297565,19.40171300198446,3644.53778351293,1809.3060615821112,1297.9634631466781,0,Low Risk (No Failure)
107.11452152670682,29552.700994907278,8191.6521624223205,0.26282302621238873,46035.33904962794,19827.683942091928,10881.847556618088,16929.37082066507,60504.46530829942,175.99674907815222,11.828591832138219,19.024509154218876,5761.887976255501,1530.6148865480031,1252.4392405465417,1,High Risk (Failure)
150.78255106497176,11105.861298074004,11571.150849261754,0.8146978461200154,16535.845683203006,19489.854960781715,2477.851497924192,37293.37974814922,19384.457557830974,283.1761449452872,9.059073753122632,18.288126241599215,9296.020402668299,664.9066668766669,1451.7564282515757,0,Low Risk (No Failure)
187.5881634571085,15855.556352411555,19078.46834360724,0.7852946667226732,32708.130569862933,11335.699049784922,13966.842231875265,36659.73701414783,40344.25993186216,223.88340694062532,8.051802870451919,19.911403435970907,7227.802440067612,1756.2808889560517,1064.789087136868,1,High Risk (Failure)
154.44719080236922,12783.634697949266,5171.627946258939,0.9330148731304205,46938.17366364846,20862.384774138907,3088.083250102003,25121.1347553671,50499.778278740676,195.55272493198794,9.518733880396827,24.585227450800907,3180.1293159026063,956.0383047746953,914.4675147527142,1,High Risk (Failure)
97.20095875325299,16698.726098336752,18819.912341321113,0.7126210793483219,19905.66350405277,6442.330537221554,4946.553971976691,66928.01504777806,28060.422419370298,296.90295547069695,11.632223552576676,19.19888305270034,9785.827020892986,611.4466899902226,1241.356418096822,0,Low Risk (No Failure)
74.82007728821876,24670.607704021208,11144.637412275635,0.07644400895028247,45141.22685572438,8513.997419241718,3133.1061356483197,48598.52816377777,43521.57559089581,207.45591916156502,10.516983217057312,22.996957469281135,6607.325210638128,821.8570173708051,768.0840425788543,0,Low Risk (No Failure)
166.6560766474591,3998.453162271204,13933.612196878967,0.06439294646623639,19253.7943800223,26556.18423062099,9557.512433972988,67472.34009050016,22163.36347067677,114.7298524923421,8.269279862398527,24.12588482522535,7214.030333096337,828.3910017853707,1448.5574215020868,1,High Risk (Failure)
85.72158336772931,8385.249210808895,14872.876409442786,0.421229733685496,43010.33435206553,13226.532124113744,12647.913310305825,19593.821841505393,43986.84096471242,215.51778001461946,8.662965566132979,20.394261933056328,3045.870957954911,1311.3978787374178,1488.97356270468,1,High Risk (Failure)
115.57493220141482,7999.141411287496,7180.4694676944455,0.31942209871420446,50874.29572677146,22576.80054767865,12953.926713865003,46454.27477232919,43091.27288289972,188.54728917926616,9.690020719760534,21.449853232646895,9775.65816583505,686.7864982800903,1283.35382256922,1,High Risk (Failure)
177.29808358644496,14208.50158818449,12322.837174778071,0.01683331986056147,35496.607757668884,13265.32773403084,5372.488818254145,29492.312864006013,12763.965742423547,225.62541723465682,8.264002914568847,18.212661506178048,6707.361715783563,879.607166454682,1241.1640027372566,1,High Risk (Failure)
125.21347337181071,20393.844379044596,30202.314790631724,0.9343756796404208,29639.75220438637,28170.084160994636,7800.077109472617,56476.04478332701,40979.89454483146,105.0382628543823,10.603470881285787,21.480577818878242,9181.550362467027,1606.4018637160455,935.9330663893772,1,High Risk (Failure)
61.22624522387605,29369.698442354747,31736.883230944022,0.6091748793796582,22165.90773044517,22489.258246135236,8423.615847585232,47966.81859950773,45409.90764706207,298.4351590597203,9.336509748709897,24.7073990281497,6657.283049828384,1517.3041912464505,1379.8329081563825,1,High Risk (Failure)
153.23431189514906,7723.928802602602,14581.523505010555,0.522243251566884,41814.795221521395,8252.03929729544,10707.790437255302,54750.5524442532,63584.21149090442,221.38474353616414,8.986012038039226,23.342761253307494,9336.994159776714,1312.0346887110009,528.8355156364076,0,Low Risk (No Failure)
94.09675264401332,17068.879131478956,8317.590318918643,0.7194894502594087,48316.405747024255,26197.110432939153,2974.42105398666,17594.772394757398,13037.755171869483,276.02736029205676,11.649218098043255,24.6219453631859,9398.870864418437,1729.7815225159459,543.9273036109693,1,High Risk (Failure)
81.30914010680374,13403.061852970372,18358.84317125631,0.9145582776881581,58611.37290224369,13481.464693361524,12045.936351111723,55172.860062538064,47760.45058073942,214.85183717171554,8.888260315996552,18.596609987666856,8692.227238378471,1295.8309559455706,938.2291647962752,0,Low Risk (No Failure)
96.97196745409143,6923.437570155495,16236.084573531232,0.03328554926345695,29155.300820768964,20234.09278810635,7902.082684077927,25301.692125083377,69231.75846512117,105.24889739844654,11.556833945119305,22.214709480448875,5062.27443906078,1977.6583725709224,1325.9589346989897,1,High Risk (Failure)
191.497609486457,25407.038218740447,20022.04718432595,0.03499884126398567,52525.876826603366,11398.473941915656,11922.887613021365,45639.05702875017,18816.87303390329,275.77565572910873,8.467058445013945,21.815852820336328,7453.5140512132375,1989.816505852333,511.1459082208156,1,High Risk (Failure)
183.64953172645397,15354.50104666137,21991.721618932923,0.16026659904058693,28176.26994127963,20162.521575253293,14911.377837912316,40935.17001349626,43849.898942717264,290.03981137919993,11.723248292319056,20.149338685826766,3332.303404462832,1949.0676111233474,811.5125738892784,0,Low Risk (No Failure)
213.21296241341076,13856.289302408262,15682.69021264241,0.5739174439595789,15855.333001155212,10214.225708223208,2930.529766195501,61730.84751697992,31119.46373545926,289.67219969141235,8.692401122930523,22.935391718969214,4801.441146976593,591.6350496641826,1197.6744117921114,0,Low Risk (No Failure)
105.57447910039483,12786.079560646542,23747.67409365369,0.6989276609452169,44339.58842396347,5082.917610122538,11069.362622700417,32631.048665389026,19631.289133346072,105.02547714871224,10.4049878307833,24.757143922300784,3264.759316840954,1314.1739524374875,644.542695116377,1,High Risk (Failure)
214.5195535711596,3430.3206137567627,19206.189406966714,0.6942649300626135,26512.036127161882,14600.61454940725,3246.987663957138,10334.131637419674,21639.558221562736,228.5320654432836,8.181272050398485,19.08485033097491,4324.272222510279,1517.1789822071923,731.783562492252,0,Low Risk (No Failure)
104.96071982539418,2599.5411274517783,6785.785906154674,0.8988110930274216,16218.764467269348,20557.881309671036,4545.406043076508,45831.59860680263,68283.67479096231,164.79852759443725,8.012915540609004,21.957171022549414,8501.838821153435,1213.0576669978805,840.4274204578696,1,High Risk (Failure)
112.8249520504967,1580.339985234469,32782.440403607565,0.6114308072278889,22312.732022663207,16571.419455386847,1514.581544801229,47619.93371391746,15555.08233652278,272.5551218425574,8.137084916385245,19.643413830695742,7004.087065790181,1800.0913254897443,1016.0777150160703,0,Low Risk (No Failure)
143.07593132483282,6886.81321654472,6399.077013847711,0.19253481772377334,41499.1225593245,10241.969449876968,2267.8175131853686,11741.738332282886,62681.95100685571,138.67177101285642,10.626063100775735,22.85765581373609,4044.032319669368,1913.6223679381565,1359.8511619030232,0,Low Risk (No Failure)
69.64278244632973,7544.272908509597,25575.634772044756,0.17770446119681405,16420.179707760013,5682.914318135924,10877.08475870607,61333.79159053031,65207.123751414234,249.5956137522495,8.446686895427174,18.654016927141875,7808.091362537867,709.5303693810798,710.5418044448685,1,High Risk (Failure)
95.27802230635987,25229.09851365559,34497.72832884709,0.7369795957211517,47276.73831644838,10809.193105991213,11437.141920630876,36038.40207962804,69293.18969873188,120.35741705767174,8.374123796995192,18.402115938695477,3761.6431430844873,884.4868744762954,852.4475078825061,0,Low Risk (No Failure)
169.2064766027451,10578.53108857589,20483.737526074605,0.289759602028656,17562.073062179104,14592.932763467496,2524.5091151741817,25412.959501492667,10570.861652628719,209.28351743790387,8.353393347304326,23.70776125840817,8734.428606432211,671.6917939313391,770.2610411367243,0,Low Risk (No Failure)
211.1625167811885,4025.0795332045827,17835.21711881159,0.9023079734420988,44875.04260549157,22076.06867711465,1286.8814080327165,30735.087573047356,18783.9509251677,126.14447082712779,11.203479886027203,22.41008757086149,7110.325388686913,1187.0716890655478,1108.525383815407,1,High Risk (Failure)
93.65096900572698,25727.3184399499,33978.5061533772,0.8431836266573511,48748.32247740121,8748.533056895863,11706.425157888778,40452.82908596084,12459.658844613336,211.0604717774245,8.11914526879951,19.86587727120152,7068.541521157036,1268.8951974937554,984.5679191677327,0,Low Risk (No Failure)
75.2638843701137,10742.438447989081,5705.072684549721,0.17662342602459147,53118.20119610116,12446.61218062721,7479.557672688966,49491.26274775836,24304.47751071632,137.7439597962302,11.375137727671731,18.766606731377472,4844.651784519354,503.1588147039141,731.1366399747013,1,High Risk (Failure)
67.02399082288082,10890.388312088082,10348.244249661224,0.8340422679266704,37477.57964995297,9031.408688124624,13982.409427051714,31656.04194353966,30186.78768523065,216.79258028324432,9.163373828999115,23.053795634092438,3922.1879211698783,1364.7837421687823,902.5443948778286,1,High Risk (Failure)
88.68052091828491,1459.3040574013523,10692.906744380325,0.0539166837897701,41374.820307175025,7968.970090643763,10589.926117066207,49768.65617498589,14211.37843465363,243.87118237503046,11.06223784725818,20.662330187520226,4222.366376251627,1600.1517213524496,1034.0855873876044,0,Low Risk (No Failure)
152.30099220979335,21804.703106751098,8315.0405368307,0.6247999220727483,43636.461457498895,6839.537178469369,12457.807657848853,65460.722082378954,23258.579745888077,281.44481853107925,10.748488524080287,22.349120937941592,3200.150924302472,1397.9735063843148,511.2970269291194,0,Low Risk (No Failure)
115.37595624604569,20007.643374779178,9927.232016694634,0.930480819579867,46740.08475650856,7394.134002662371,3687.005816429684,27218.489525277848,26940.54291590394,204.1170239775833,9.98269050878595,18.052503853013615,9447.973410884184,1811.7502610160714,667.1999822447755,1,High Risk (Failure)
64.87418980943362,11772.436840699675,22719.65679825923,0.7870695027239316,38131.84912103397,27952.72425085355,10679.476250980922,56143.93924354636,38564.49975108989,275.9077646239858,8.620204655801576,23.453130691365274,4691.307557132086,1415.950515939882,1121.8322225601537,0,Low Risk (No Failure)
209.56728279884533,21207.069904965898,18298.579582377184,0.31650213991029075,53422.0068545802,22046.965650651386,6442.457893500908,62527.348114458415,50126.963464796325,225.68505368213505,9.338975762378388,18.461731113582108,9638.000220261081,1751.6868344149616,1357.5852416265552,0,Low Risk (No Failure)
190.39035656648628,17841.377054123204,18737.282208941462,0.20700083155804516,21977.687463558603,13828.32687858531,4614.729533184614,13045.137467408667,36964.93529119495,205.56990315995438,8.09690353844555,19.186684581320655,3510.6761770820003,799.868969264802,1392.747273285359,0,Low Risk (No Failure)
122.16929620325531,13306.788755555406,27833.317654557737,0.9868768469417205,48338.818348279805,16430.760143309126,14981.415760917924,38328.69108292715,15047.907278261504,161.3775544737303,8.816703970258448,24.74807057935385,8035.423110803153,878.7728362149505,1390.741243950107,1,High Risk (Failure)
113.9205082290058,29728.63937799319,28635.941587566318,0.413054347953398,52478.97055815763,21787.88109240965,10760.885314128122,54618.6060464944,14011.165213965925,260.75446027045916,8.982644226314921,23.75497923295307,8828.52292241966,1314.661312161657,673.2538331330602,1,High Risk (Failure)
175.54291767294495,15869.747094023958,14909.330161905396,0.38846364261099653,42137.005618479656,19426.71789265071,4379.620581501962,69258.59913952377,24168.28836500572,121.51359436580312,9.823438164195037,24.428441216107355,9311.709482212882,611.1280843341156,1439.2909470184127,1,High Risk (Failure)
99.49712441531727,11530.845117524404,6799.378165745493,0.34404078861472787,35926.9869101231,12607.983688135973,3430.0447058667432,68969.0634097142,37341.84556677723,100.09946301062462,11.420887648005923,23.31845070176489,4600.288795858436,1670.865947589466,892.5084859521729,0,Low Risk (No Failure)
104.04611415229763,28903.391375262203,34266.295811718606,0.12815498456313268,51196.633125370805,15448.442673147882,4442.420101153401,33820.06196644346,18723.01929705158,287.3062326684778,11.789637264182797,21.29531397237018,4635.589882895973,1694.6885997266158,918.950857288423,0,Low Risk (No Failure)
113.47083426769758,10372.627894405749,21327.61728052589,0.19209764520135264,19513.363511755015,6017.260928778585,2924.077872525384,42559.61121760367,66155.0682453063,212.8401229133526,8.868516141261587,21.719342052810276,5619.563390606952,1717.872108433265,1111.3556149131264,0,Low Risk (No Failure)
127.05591566673364,7227.318628525334,18536.162246371896,0.6565330699030019,46163.2879164083,9227.348923790245,2636.8359646574454,64851.52464417298,21918.712321972733,284.2098352816559,10.037281503994155,23.99761170801752,9441.829373541985,1354.270394623993,1446.2852624718432,0,Low Risk (No Failure)
216.3654117083087,11263.264349142693,12772.946161463336,0.8899601216153182,40852.6947375629,10578.943210073165,4246.426694101168,44157.029058104155,56035.543158559405,142.74455398684034,9.983446722800569,23.537357881795444,8197.774457754487,556.830489053878,755.0430798103256,0,Low Risk (No Failure)
82.28065132555264,9280.227079744847,15363.391574165404,0.4562430258462945,35355.518384984025,23842.397315868857,2370.5949228905365,26178.4816783012,18763.384833448727,272.133540074128,10.85657500309187,23.461928013208833,6067.638866744027,1695.2082647132213,893.056048470628,0,Low Risk (No Failure)
134.02876570713704,26838.242656030412,9962.027135040771,0.40367365762402785,54034.60210444799,8010.580654519226,3801.149965573181,42858.08692627686,15383.159152384498,278.8417753682161,11.265985471638265,22.633938381044153,7632.737750551212,1618.3696967525013,627.9410972872524,1,High Risk (Failure)
194.6316084935616,21280.074713503807,11935.276494121827,0.9151937114245665,38486.21418070434,11675.808443037378,8346.667356297497,31065.942099973447,14020.519325711972,292.6932486925889,9.306916663650437,19.55098677022643,9187.706624781957,1365.3405850919135,532.4999158470256,1,High Risk (Failure)
72.31251226067346,19536.853052308834,28963.154873438856,0.7503124383797197,27082.86188855633,16582.186226660873,6938.505876897976,24093.66436769136,45391.49914858392,293.2215246313532,11.762118758040923,21.462507933679845,8309.578746491943,1056.2641936454352,563.1308652654886,1,High Risk (Failure)
205.51273774995872,26253.117997805282,13769.999338501473,0.47501675699341883,53978.00647402736,10141.130586234885,11200.374177556263,58948.97804590713,68968.0436117833,179.03847955616146,11.634544113919276,21.80350696247705,9300.22654292441,1736.40494707668,960.8007413822872,1,High Risk (Failure)
209.1244968816028,29133.389706134534,22514.99817876268,0.28042986157357686,28042.595807083813,6419.518481407672,6579.663591380667,51704.50472529272,62868.606053610434,149.19131888531865,8.322450434668172,20.474994584264554,6578.196991164834,1653.4171001165591,1005.925226932003,1,High Risk (Failure)
213.0402237279168,2655.8732749101146,10314.063643790076,0.5407682328273363,41927.052443977336,24532.81571071511,7818.230806451247,15026.151995652857,29026.77539778004,188.95322353186646,8.229176081179492,23.331899614061722,9558.048705289433,996.8765261277654,1185.2832338430007,1,High Risk (Failure)
89.62126861417914,19799.45166825684,20990.91684464767,0.004401609003786278,49762.58845581179,6514.252079098613,6295.582761737092,64995.541921863725,65440.535355861924,181.51286244762608,8.044204250556124,21.29631028647024,7866.957445638211,1143.703744324925,600.9267167769539,1,High Risk (Failure)
163.92142875319158,20984.163363117896,31649.23242313116,0.14315631166407194,40972.97379171042,14592.185040960616,12141.837810234441,69520.49398012017,68222.98840282238,188.40990345510178,10.23626489837487,18.199072588692207,8007.165367117594,771.8297363541258,990.6169867804106,0,Low Risk (No Failure)
111.01869093138221,20935.668967285153,18683.16198551638,0.35020192531296834,24591.231391156944,28053.902321103807,10646.105151831107,48241.68347055453,28188.18418661335,262.4628654304521,10.23087942659211,21.727557718916188,6456.446226049816,925.2944503922913,1209.4531295373663,1,High Risk (Failure)
163.71735500925536,9596.781018602518,33466.448746983915,0.03224036999655444,59447.829988789854,25017.058910660362,8138.892525588514,43638.968070791496,50605.7855150779,231.45154841728132,11.329401120978092,22.441263304480742,8720.77146131358,1089.1587443068975,1228.7934916541753,0,Low Risk (No Failure)
79.27157439945047,14057.690611402508,27597.092429262826,0.06383099202611353,49278.16059956331,12902.676378195785,3442.1404915100984,38904.011673531946,19527.448094509655,237.3748191152681,9.601164321723845,18.623673973825557,7586.360267466749,1322.8801467775716,1379.7424540950005,0,Low Risk (No Failure)
191.53650569603607,9985.566385845117,23364.49464840171,0.5291744531818495,37123.74222513224,11442.263120848915,12472.545890245034,12736.68890671117,33997.409432499975,176.59618701792886,9.285064410021542,22.78974943281363,5130.838602254368,1160.153508459622,929.1715184069466,1,High Risk (Failure)
65.78566088396194,3574.4247417307474,15775.802071675445,0.03048326031138804,18707.156340957525,21800.934467946434,13320.308397749297,38354.74597691557,38892.37318860705,116.09020845708866,9.620223058189959,18.89092862310272,9237.665762033459,987.9151525234898,1244.9290981477143,1,High Risk (Failure)
168.18840993206945,8610.06636919022,21602.000805002448,0.8324780000319089,21971.83590801255,16062.780798632868,5726.1824089416905,67675.27112603889,55717.16546203757,176.3397441346412,8.659132663020959,21.580571371014386,8448.820818881763,1141.0837777199647,1127.1118868404128,1,High Risk (Failure)
64.07164158492014,26955.98190674967,9687.840194340668,0.6386253991024257,15416.426409763357,28573.749868000203,3996.562204212653,65854.0767749387,20206.376826749805,211.89416809169052,10.903839600895282,23.86482759493775,7025.617547425347,1311.8832470594768,1150.5651185795477,1,High Risk (Failure)
120.0527852671363,24416.86013390536,28787.068349889072,0.9316074951476611,55706.59571339258,20278.862255657514,4342.430144730828,69550.00550568037,23504.97301455165,142.99120372212792,11.912439145399834,19.050254595771147,5849.597983590946,1448.3470561386816,1016.2118899219694,1,High Risk (Failure)
210.9785472268158,11634.935349220172,32455.29011559793,0.5170483546901332,45524.679208406844,23017.10625678288,4141.976336923735,12108.052188532924,50207.45447702302,109.87841523617512,9.539824219741824,21.900592499514875,6817.087446755357,655.8799231569399,919.615379668294,1,High Risk (Failure)
113.01552113648812,9221.708517857243,13773.363829921876,0.23217855018360511,47498.487561405345,19942.087563343903,11008.15898276153,50023.18019620267,58800.84911199252,138.3738685722512,10.149406761687777,19.56064327548173,7010.535741783296,1456.398430640575,508.77928142111773,1,High Risk (Failure)
94.23914859173017,11091.091318501278,10506.887243597263,0.1046895682836545,19408.60906777803,27383.796680306546,14774.22178362735,61875.94878389664,50968.484669120015,221.68684702092645,11.856530727083662,19.415591254509067,6980.502464010623,1923.8134794610974,884.8216155333369,0,Low Risk (No Failure)
166.98291518790896,7139.716792291154,26949.37711759664,0.7597116603389674,39466.33613138138,12186.139934764626,6850.850403832638,46500.66673776789,19786.20336549037,159.22414609200518,8.283217256045601,24.816329263477698,7778.205443216586,813.0168297524884,957.3755902317863,1,High Risk (Failure)
182.64240792521355,6976.139618178082,22142.341791327028,0.779761055279122,21543.72675416767,14502.723670060337,1564.3919029636763,59797.39730477339,54377.84613967502,149.05697184191484,10.492093238304118,18.847593424994116,8467.647897140498,775.5234503845586,508.35931570636194,0,Low Risk (No Failure)
203.74183465344558,10830.12785901182,25914.194418373496,0.8221448795703731,40098.53131993032,25017.80148046212,9615.493385605027,35853.25711312872,26798.091462312394,172.2535441793354,9.106693281421823,19.33851938287209,4735.70711416105,552.1121498022115,1274.278320393562,0,Low Risk (No Failure)
131.62774806566694,21686.330155536896,23398.50040525696,0.5953107518434502,52888.23065552075,10555.01032690212,10740.122423054221,19763.121358629043,48408.09541251012,186.48004405793858,11.425063088147223,19.472964358568767,3480.7441628857855,1814.4855359404462,650.1612311119165,1,High Risk (Failure)
111.78867782467898,7753.4952384026365,26762.363695789114,0.17723619777235344,29952.137343594524,26390.74040397689,5697.8036005880185,36011.418856047254,17679.515464389195,206.7972334289156,8.893695960171737,20.323549759167825,6405.324450162741,683.742006038165,1177.258192995617,1,High Risk (Failure)
145.21430920825372,9549.69991205624,10531.047140590814,0.2986839838141343,54672.67234454272,23147.586606622324,12890.462246320656,18344.520281242803,63684.4765769847,141.7936828218898,10.591835403550222,18.410910448420253,3619.8288535029046,1151.5554041909809,1497.3814137308764,1,High Risk (Failure)
73.360114671787,4643.661279957106,34813.19308303795,0.35891299099803065,56485.31111594892,29829.4054531372,9381.383605097493,51436.62137443698,35964.50953974238,104.42869303321464,8.41384827968681,19.262601947440082,6250.796023102577,1274.233762090575,861.4613738094627,1,High Risk (Failure)
204.9829207625226,8097.607309470891,13912.41649633995,0.912602521738901,38499.61558324761,21252.825688536635,14858.356592770664,28087.801268986394,43739.031978702704,118.72021772383061,10.744261172963196,20.474132104439303,9178.740820486197,1703.6317329770675,774.8312990775861,1,High Risk (Failure)
132.66938603787298,21414.141312507094,18001.008460905046,0.6292189720886135,25484.642364567284,19847.65650563995,5004.053435791679,55202.137418663646,53987.96144500356,175.15262328801535,8.998802059724355,21.8368018024903,5555.378847375123,1148.700187334954,1143.20225364577,0,Low Risk (No Failure)
128.99741916664925,13030.580590255828,16878.23287441922,0.9858151058135156,41090.422136267676,19104.48819823649,8566.369424898792,31375.500424666163,41225.96380171101,277.5739583457644,10.479849529634588,20.403407898368627,4534.901147015721,1628.2203584623612,1453.3156649327648,0,Low Risk (No Failure)
177.37830088982435,4284.060097554776,18139.932436866624,0.9050840377609537,28157.105072186867,5346.190887659548,3664.832125249256,62576.31992470363,47113.817346222655,248.55372598459093,11.64500088517196,23.625140412148166,4067.700921408845,1195.6633724481735,761.4342183043924,1,High Risk (Failure)
96.34872912376238,3807.7431986293395,24931.262325546868,0.004060586286875667,50065.19929870149,23863.375038081704,10217.453828414122,61813.5007017334,23516.390949964254,228.18921261102543,9.11143348827122,22.479787905485786,9414.16855830953,653.3948518348799,1276.0234732162266,1,High Risk (Failure)
139.65000128548644,1532.3931359774947,13667.429474114353,0.780338247625157,43082.62992498069,11018.860370445178,5923.551076398695,24329.326187781844,36428.74883063725,119.37457781460864,9.171427351220185,20.080604947362417,3757.1398764865926,967.5471954820698,1118.6055919288922,1,High Risk (Failure)
211.82168596053333,18416.912712626945,31853.18677190276,0.9188528558831043,32354.641039923717,28541.068443434862,9853.561701769917,34007.37956022803,45677.07118546297,197.6072765708384,10.644913597773682,23.547460440889306,6651.648964158418,542.7149120368244,638.9895277913678,1,High Risk (Failure)
132.63838579195183,26333.68386703229,33325.230905169854,0.7191643817788894,37288.574416032454,21178.566983252727,5135.1443503609935,21399.14207116271,15990.13357760934,276.21570648624356,8.751824434626254,19.586511864012433,3374.9147384196303,1987.979540029591,1312.9851110026334,0,Low Risk (No Failure)
190.30188468300182,24480.553484554126,9572.20760113644,0.2863965784275785,25844.351529583255,18014.13490353412,6207.031274745329,66843.88518082278,44184.49467196993,138.51760934787856,9.011137254589718,20.13637711254808,4536.949188156235,1025.2703397987275,1405.6539959643196,0,Low Risk (No Failure)
69.8159403377069,7730.278758118786,8523.86218389152,0.3283573523272054,32706.00234331256,28431.540244721888,13530.178592770471,54639.18579401408,65928.2516104211,193.85561022647076,11.992129100878362,24.302222716381703,4147.88360877117,1696.4530476081118,842.5540658624918,1,High Risk (Failure)
155.21246891204078,2445.9442455757635,33125.77960278749,0.46710369231426996,19595.566410909603,17939.310449479904,6063.692450581993,12649.863317438598,58706.83139594954,168.76001756670257,9.972427262806809,19.310069562986637,9961.884084614676,1798.8374881895973,912.5207018915912,1,High Risk (Failure)
76.67596844933563,10300.652784544523,32721.03477290764,0.4924226893985947,57299.24784258719,10358.599618824599,8965.930201632073,12626.381677780812,62756.789983118026,247.730378562118,10.268818132880831,24.20207374331612,5734.563487335981,1004.601437428282,820.581953482907,1,High Risk (Failure)
102.40742853200064,1371.827835807569,10817.834608420413,0.9058605637925271,29972.021186956827,24947.568972353154,2429.695390595299,55403.72882270469,30368.14133318228,104.23681884257134,8.836021293616701,24.62179585208628,7496.146938110112,1336.1424498469178,1410.9127196543327,1,High Risk (Failure)
172.617134661493,18493.441934080947,5865.737400083736,0.49687739168679557,51745.524438265704,8190.229569112294,5561.196065586888,54248.67679404891,10001.004175476084,277.8438750855847,11.56300681240195,22.077780435346195,8793.73448473151,1359.5171528512458,835.6141834382843,1,High Risk (Failure)
181.16963314151022,21864.339062429186,12112.318626686438,0.20829772308469174,37643.73326605346,13041.293457572801,5696.954084632997,53164.89278741192,49946.99045379177,103.54670497877242,10.034953905073221,21.433550871296646,9179.616579318306,793.1068029133007,584.6637210337317,1,High Risk (Failure)
91.79450904546758,22479.243850932155,29221.128193774683,0.22550310252096262,21884.810400517854,9829.59781832557,2997.907368994858,38432.25374386125,37811.55454596652,265.63865098172596,8.329721107786662,22.852018317925523,5614.355666635,1377.1568667451693,1172.0826252445781,1,High Risk (Failure)
216.65679008242472,2507.016845804227,23420.935953459517,0.9709840578768706,57102.87103478957,29509.461726468573,7997.636135508648,39001.71117710374,65012.5508548369,246.70544238028828,11.662335934691821,20.74123659036684,8076.804934839146,1737.517874584895,923.0519230220289,1,High Risk (Failure)
170.10155297384674,22367.042492595712,8822.623500781974,0.6481179230208346,59276.769076572804,18547.38791917457,2334.5618720567804,56798.62976944933,65842.38457986676,155.59185552349467,11.135006277167399,20.87502458432055,6504.1846767689185,1923.8714866066114,1029.3745882884102,1,High Risk (Failure)
110.23467478037645,20248.296460124213,13020.341364765602,0.9899231424207284,37485.02813016485,24236.6818658616,12770.207154422826,10171.390169030945,38836.90721228249,132.25712829396304,11.913850181287547,23.07755577832615,9788.07493395091,1600.934033604868,524.7049691131771,1,High Risk (Failure)
81.14874524061948,23207.744488756005,8968.511240288162,0.8595286211130564,23814.294358199302,13942.410988514004,2223.626402501332,41046.34428411543,38755.00937346395,284.3678853012169,9.402957643009087,20.19561367121996,3863.318504477765,1026.170873067956,581.8643296852964,0,Low Risk (No Failure)
202.26046783040158,24825.7530610643,29985.674258537634,0.6129858620636884,17473.38276203933,5534.0268462789345,4209.360277367148,14203.339637533008,18624.616793995432,264.0025531289473,8.811712639470095,19.975185881166198,4329.050007982578,1060.138114571758,1140.4522222607602,0,Low Risk (No Failure)
161.614984138823,1411.7023996799874,19642.767807949276,0.39504053568149844,32329.530552323267,21946.73835043635,5976.1962204667525,25431.352706604575,69740.52602574138,285.40509855124617,9.736117394619294,18.540200623281592,7744.761998321309,1158.0317072824437,1369.9802000990144,1,High Risk (Failure)
61.984645804370366,26957.470010223125,28543.22963488368,0.9716506046194932,30788.15208234809,6088.052215582741,9481.826652542331,19917.340185116685,41427.58410904041,157.66669135458045,9.624128255815444,19.54500238550276,7549.563408601714,1725.9517693229102,652.7250513154416,1,High Risk (Failure)
66.652633575455,16569.17832114746,7413.296006280028,0.871597150951561,42287.07653583152,12648.90355049406,4372.497371764228,57820.695996119786,41679.023516709945,199.9720402392157,10.627403774754333,20.500187487445046,4695.506261112329,1962.0006037644873,741.8698011122032,0,Low Risk (No Failure)
103.54322195679403,14327.326347660135,30476.574340823146,0.9648231254722478,49321.802545047765,15471.742993180513,12342.144938546404,69545.12211299055,68231.77604410896,223.42540879178617,8.824636579314557,23.481703390327894,8000.061657057992,1942.1151553378095,1282.3160826127933,1,High Risk (Failure)
169.69044595663541,12609.56618391199,14855.271630135894,0.051641797222756636,26140.293009904446,10609.310777938896,8529.082323215083,63184.52158887868,57289.178716875205,131.9903157876589,10.808021082300844,18.540876504327283,8147.175080271777,1908.903638363375,776.4434661518353,1,High Risk (Failure)
143.92182233124075,10110.699851272191,10445.238848644865,0.819346148721771,27921.492184565912,17179.794382211083,6351.816330559661,54747.0247117713,63439.0506485102,181.27881483426012,10.226347554922567,21.015912158854487,6568.406231108111,1530.9659665682939,557.5846580743014,1,High Risk (Failure)
86.16381961360364,18415.50827798603,17762.935827690366,0.0732315042772339,22602.93908363415,10417.055028649818,12562.088092012016,21583.076583444723,20124.20534184212,236.52888429039555,9.30695732097644,18.675146544667836,6470.094759351685,549.8893592554475,739.503651747815,1,High Risk (Failure)
190.79096987815055,13959.351660812728,19214.25304880416,0.933954131795238,50308.79615110196,25580.391267776235,3934.245137035505,10420.593549530951,38485.427403775364,238.500860555574,9.096357791205289,19.619876977995876,9246.78981279087,917.1107759704487,699.1667823496634,1,High Risk (Failure)
208.32552716740906,5515.085334922054,30636.955068237214,0.11154990734685732,53835.354667464046,12082.571579992558,9118.61107298496,17152.37984096267,45727.510850260194,144.26809039326406,11.399967477444239,23.424328457308597,3830.9192972857186,1319.0118280012753,679.152610058529,1,High Risk (Failure)
89.82716877663593,20340.256213842098,23249.270843106788,0.4143004118309941,42289.192086222334,10388.881672893538,4565.693351458969,38253.32804366734,60394.89319876094,236.05483970715275,8.868850955894786,20.07201836017005,9875.9813205649,1975.1276125504196,1412.6863685127255,0,Low Risk (No Failure)
154.78633101792678,22056.460693031666,24617.03439107772,0.48750227862027984,24847.560491446166,7586.457092623826,5484.917848230786,66511.73164550331,59771.754962949126,129.86709125408396,8.458719300968035,21.55054126802202,5676.8423680276355,800.43137937202,881.7845290332107,1,High Risk (Failure)
168.83644467333653,10190.477400737786,10486.813169875977,0.7058620608962562,52620.13674638833,19431.712337308098,3482.3467959879276,28832.82476742154,66746.64478839429,234.4201729446505,10.060461798689,22.070778352775186,8045.254040088967,999.402999170273,945.8689420915573,1,High Risk (Failure)
96.86666593877598,26538.86674647276,21582.423427901103,0.16860169123755242,33321.16472447748,24834.200866438598,8123.37858289401,34526.04162394056,60051.14110742956,195.83402614957856,10.204755129067042,18.47024860401292,4877.137076493049,1548.8741722854293,1451.7899194679717,1,High Risk (Failure)
168.10606435313167,10707.324470799093,29186.289655172994,0.6834265904180037,35495.23400880631,17520.6760577818,3427.005546761123,14674.729508249206,18451.89620545775,197.88213621342084,10.08945412568629,22.907118264882254,4241.136720747752,1214.6423608028513,1303.7063723219053,0,Low Risk (No Failure)
189.61814314866893,4743.066160995562,17970.016996359962,0.6083194014000671,52019.08562158348,16022.0058283716,6383.374038371454,25445.64566048175,44498.586514695155,228.35849309136543,11.605439463219222,21.862006952767654,8206.085185160126,1281.3281676391648,728.5343923561813,1,High Risk (Failure)
172.3974534379375,14612.798417688484,16938.591686040003,0.6165878380712464,30932.963780711267,9261.488223665716,5814.644808163255,55305.12781429809,60726.87629999174,279.78759917656373,10.52913480256505,21.05272314197318,3511.2821309758688,1965.9152079202,1047.9309532061977,1,High Risk (Failure)
181.16527652408013,14408.481970184437,9521.972218894109,0.6791554027396302,50900.563770281224,7717.793481924563,6926.7440632848375,56834.5163946308,36055.50065341439,255.43953130768696,8.53316152376759,23.72239351680995,9375.631460128167,1775.1143628845864,882.7063389880238,0,Low Risk (No Failure)
61.56333558706939,21694.613621640674,5247.087247758804,0.4637874557553531,53059.31907530121,15539.40593426589,9747.144018090006,13060.880975281068,20501.796443433464,295.5733055900994,9.88768372904589,18.715387044801744,6236.768411587496,1481.503269192671,1354.7820523637306,1,High Risk (Failure)
76.22733255187464,6420.311597053427,7084.399546505958,0.5451908290902965,19964.503359558516,5685.719219161152,2838.901186059983,35091.4727071329,17087.978053851555,287.1456987814539,10.804227599658162,23.22171827544836,9212.856324751816,1317.4522573602515,1406.7950929767685,1,High Risk (Failure)
195.68673433623744,25845.168448671026,10870.956179091187,0.7142634628218487,57372.240160769754,25190.2424758751,9025.039645971108,20860.71478763274,16750.758954289326,273.23249819589626,8.502696027916171,20.930563866327322,6891.352778174109,1570.8452337416618,710.2955542598212,1,High Risk (Failure)
161.18340103448136,21905.90335251083,18001.425443448225,0.7778924758331541,59733.24621221962,7996.501335341403,14002.66573514925,11808.38159062474,10120.934446013214,181.2993136877539,9.845936304648323,22.803196886446397,3521.8369326973043,1216.1123266606633,994.4142064112509,0,Low Risk (No Failure)
80.43415738163758,27059.31040650013,15572.93076658222,0.9471165032363784,53126.92427572337,25827.735435490908,6907.051731888371,21394.814196501437,12564.394881608716,144.87209996768635,11.592608169012495,22.434686104753037,4412.168222834286,756.7729391565598,1408.1443725628992,1,High Risk (Failure)
194.1168673730881,23284.21106240002,8996.802439530598,0.7003851331432934,59716.41135572212,10810.471108609421,8846.115799872174,38030.15865592777,24988.408075758278,136.09901314876876,9.967475286938686,24.40603737984075,6833.709939056633,798.7302608808062,550.5637319296789,0,Low Risk (No Failure)
111.57661519595567,26978.656215245646,23793.915657621677,0.41860518567191507,49864.389437950886,20311.286211433126,3284.3439186742644,27258.68404923895,23818.85642277621,228.0823928829467,10.072745892048728,21.555322858468703,5561.308419776495,1128.1847560900214,519.349483884287,1,High Risk (Failure)
197.45788122350663,24916.971758230684,17345.34808697631,0.5910987992719926,25045.346863227205,7453.151333670687,9134.766065098822,21840.783787367523,49376.196983621754,124.69902785624691,8.19846920501233,19.31937788396245,4543.203081948506,962.0642353310279,1124.2514724903185,0,Low Risk (No Failure)
62.30295818076094,3522.043587422059,7670.095339480389,0.5862678431932681,49445.63012610888,10575.004525961947,4527.881422098329,16734.76045269376,69107.62415694998,236.32049296136032,9.30585905513896,19.791328012255363,7109.875429847999,760.6138730030982,1186.2849854038432,1,High Risk (Failure)
157.1350457742049,11744.251674725914,25395.10279273161,0.048150789173200925,40788.17963326191,24078.667754103397,8421.149877688094,34345.46687937595,11042.557819675416,139.82618403949434,11.37374406028469,23.734161652637688,5071.76222403162,1014.7439274979195,1476.7475258316313,1,High Risk (Failure)
91.78313230358492,28068.986293037095,34473.42071141224,0.21430826216183163,53474.370667442585,13734.13006649388,3567.807953107839,40367.01729079096,11374.117506325925,284.18623522010023,10.373085788931743,22.798445232153444,7306.89306896666,1423.7793064596567,1053.45536098319,0,Low Risk (No Failure)
125.54765908680307,14801.283496722821,15460.936860849099,0.23517023912461177,23229.341165308702,24209.20171476908,10475.70816577039,32276.508424269297,32560.470467795476,222.45987242601592,10.669365701583558,19.440994648256705,7198.123401118,1592.0157418026151,622.8499614898968,0,Low Risk (No Failure)
101.78598920173764,15539.178815378631,31101.439898191755,0.9323518979012438,41883.3551391712,26132.911989979646,6725.641517932313,66869.5666992245,41587.0669654379,239.26673894357828,11.128357792560692,21.89489624632157,8120.642594156883,1338.1342711973407,968.0993303350858,0,Low Risk (No Failure)
128.74773813682367,14359.864230981879,15432.193468877771,0.7412376971371935,45743.90328082487,16670.58861018299,5920.41602703542,11487.299922213308,34397.540122175196,240.52762417771564,11.938154769193984,24.571822809699675,7318.614716713813,1107.8922392899315,847.4030184011729,0,Low Risk (No Failure)
161.86714914675318,28222.859757358026,31103.163750323132,0.3628200304713315,41580.87658720135,12880.224812993034,9795.11125207381,35235.32487114203,37858.54100847965,268.941833343054,8.909522894303754,19.40837676069943,7312.569403259987,1047.5895750904929,1378.1300140506191,1,High Risk (Failure)
131.24884080042648,22497.952542172105,27329.111520120983,0.15467530312791267,24513.585709915686,23863.04311837139,13385.81357432588,45650.161381145386,28137.560664344484,294.16059768370826,11.996650448611447,21.290974464484517,4429.835422618817,1328.1432294542578,933.7532485406709,1,High Risk (Failure)
213.05833937335328,20344.068856635262,31210.05966953994,0.5360563543270873,45889.535935614316,16995.504535186003,12749.967626905802,16250.730325569897,56188.31900492483,247.72469662274935,9.177136047209466,19.91498624409627,9973.338088786822,1168.885941506757,1142.8423911128043,1,High Risk (Failure)
72.82880225310456,21122.03692752344,15236.062171764604,0.7923509643549305,35695.901487982235,17176.107486749082,4944.470098779284,22640.934031022254,66380.54749058757,115.00567150831371,10.256342934773855,23.065016586892774,9819.726585843273,1638.2227018781075,1224.9963990020483,1,High Risk (Failure)
112.8344103794396,6304.764852900456,14691.307538558072,0.8501188680561119,22254.558626326645,19013.464701293742,10289.206399106693,17910.547467536366,52403.60567494234,184.61693231282723,11.035045881514819,18.97679203603611,9433.03225288982,787.2711837741961,1070.4172989390586,1,High Risk (Failure)
146.57821198061515,3269.020858820659,7829.379543882427,0.8215883614858137,23392.80072535992,19501.216483409335,9214.643720800761,43784.62570284827,43660.29121767883,226.75571829131502,8.773625061906245,18.96192492791077,4675.216323936807,859.3304340450202,552.1308525705408,0,Low Risk (No Failure)
107.55804923337875,28475.411943734,21508.86569549389,0.5255407311257162,38651.374171468524,25094.248813527865,10450.048589920772,40752.87510506578,69767.73887521896,273.88432955713347,10.569914372219575,24.418791752839137,9839.39400625319,789.1064067587276,817.9020156308748,1,High Risk (Failure)
61.58571127858458,8038.7346171589115,20499.63202185808,0.2120433621929596,24029.25069649543,29792.907297722002,11808.168915791679,60461.77432611005,13813.9587714817,235.3354559734345,9.3573463326524,19.838781445840755,6743.76687079815,1312.3982760007339,1004.3678186690516,0,Low Risk (No Failure)
72.81691625753636,16408.592987522097,34677.687158451765,0.9581135288993192,18102.327552564904,6102.753987365476,4634.977274270872,64659.4291973899,28600.149572794653,201.2084710069006,11.75937242368741,20.900758343224155,4997.098500655076,1297.874849642542,1222.5248843988875,0,Low Risk (No Failure)
111.46719834552778,14097.5308700463,32997.76002742561,0.11468124237867017,21777.012304241674,20681.319700467517,12251.225790000264,16023.200619616982,13696.8263565932,239.39342141597567,8.396839710643643,24.37517107976519,3704.134412628426,1732.7960838350866,1105.264968964438,1,High Risk (Failure)
167.8608472857701,20955.412116984156,9112.038276213443,0.2939165968905657,56240.938780464276,8390.415463575406,12301.438161908633,11886.365378472823,43417.6726183875,203.59659367699567,9.56155673961144,19.86906619570259,4079.645061924022,1307.4029879964887,985.7376095150411,1,High Risk (Failure)
166.1297135206403,10048.03787714506,34714.1501704177,0.8497130445803941,44832.7173043325,26416.80229886044,11015.704367570937,50823.79174936035,23691.758507482067,220.40200162961753,8.665182602631369,20.343673351850807,6325.446417440713,982.2137871055183,1218.6027443067806,0,Low Risk (No Failure)
92.79748726653136,8128.739023654664,9586.613469439944,0.39768113514503434,25986.305341274958,27510.988989957474,13273.13648543845,15889.28540250171,56230.57732882616,219.91478086795325,8.577780344045777,24.088237632534042,9703.315375538057,1831.1560121423947,793.704077650797,1,High Risk (Failure)
123.7860844435701,20634.096631578297,28164.57514422394,0.7820645215724311,27807.324532216888,26076.963006496415,5172.516051159372,54692.93720799733,63173.88270294857,239.3994641758205,8.055004302310111,22.84688572264684,9917.541515759072,1369.7649178229244,958.6314321404484,1,High Risk (Failure)
157.7569582161587,11622.305199989143,30827.91447736088,0.6397477120376796,20529.950525762506,26702.88933058701,10135.990947124488,64754.91762321558,47510.749880514406,145.09884427970988,11.32514452742971,18.21592546685175,8950.326009440652,857.6824805772294,707.2476581252066,1,High Risk (Failure)
65.54724267623733,27261.881989620833,6589.187181383025,0.5355366777971948,27445.416558703106,27483.36141832838,7652.633931732353,17522.242335275212,16819.762035801927,178.1578848013849,11.38513391522064,18.02287556433454,9544.818188522891,1551.386149914368,1032.76935914653,1,High Risk (Failure)
119.60142904855454,26106.089876097016,33416.810820401326,0.010204187285245192,29704.005389940685,16844.680980024037,1888.1118351715177,54013.87869779292,25402.118387980554,233.97553354917812,10.149345688964047,24.48824973900443,7785.119741122636,1660.868980945582,1080.0273405981043,0,Low Risk (No Failure)
63.53976824463956,27681.161523831204,23193.733266306368,0.22628262729366766,53841.02831354226,23771.576663371627,14822.126009947655,43610.841770010906,46706.784533163045,286.61845745001926,9.961552232826417,18.60921691310823,5990.546612618054,762.9830028318651,797.0136858774594,1,High Risk (Failure)
138.76445703168557,27454.01956622628,17992.23515433695,0.42023263280146006,18523.377014410715,9676.790380014276,2461.6484261950527,62432.389159087965,27446.520855922816,245.06222817948614,8.545204895838001,19.69582759606664,7048.91041817554,1909.594777215273,1110.9426251343066,1,High Risk (Failure)
165.17655714722056,19626.066741706334,28813.004210892617,0.9142313763441625,35560.45819115208,19533.590093493578,2122.482514206988,23412.24316352231,18330.123822886548,143.33544933168815,8.849564789425,18.046514275649862,7284.13454574488,1316.3552419457055,519.4835187201809,1,High Risk (Failure)
121.14231597321108,6766.027378307918,29183.354529752145,0.5075383250920755,33456.20935746486,11855.72927563065,2979.6454101045965,31803.027462873008,12152.637782798784,155.22866236694873,8.375846097630456,24.85014386169789,4965.612091249993,1526.7552185587206,682.9236922016073,0,Low Risk (No Failure)
144.11042916842973,29652.404899897225,28254.38233185784,0.02554740112160414,47277.7337369448,20190.338150830867,1452.0742397725132,43134.0628137441,40457.52372553098,110.22631849547915,8.432072727002845,21.677149972356542,9651.984142653037,1344.6618882032953,549.1821213359309,1,High Risk (Failure)
79.89894384008164,22669.51470756902,24188.501972961858,0.15676943733500226,35452.66204421709,22654.183572238115,1842.566488954667,34778.80872828678,26362.110988212404,299.44275229380935,9.510132812233376,22.04123881215762,9028.571582689068,1403.2802938767857,1238.4913599537072,1,High Risk (Failure)
80.91366027843192,5668.548518933868,18480.539501886386,0.8591818901106761,39629.79340544173,20316.87641963052,12814.243873764242,58272.00558267353,40548.94571533019,146.28899367318883,8.175554410229317,24.162593639972627,9782.299330815144,1777.698283821651,1147.678390465619,1,High Risk (Failure)
161.09395394716788,2429.540290168077,33139.63596378491,0.6919925220567443,43080.942299750874,20079.02900342192,1739.2795188301418,25960.16221238608,44057.213647769706,267.5765242515696,9.690549600184635,23.095009527063773,7211.807167261772,583.4432966478646,1406.165700920017,1,High Risk (Failure)
172.1823351067958,20809.0176805136,11815.737595466482,0.8254369156049984,40970.272075167806,10260.04227176206,1725.453798550754,67509.57496352427,65692.76107115016,166.23396975039557,10.399383868549887,24.606713724217066,3754.1973438005807,1871.7899576892844,1154.0945027685157,0,Low Risk (No Failure)
136.16290069900265,7736.399968797126,6565.551733902832,0.24068490922334085,49862.1740105036,14175.043553272095,1368.687470297877,24702.83686830436,10209.406351114254,263.66364407949675,9.940468879765993,21.123211097507195,9853.537670704927,1116.9656892326186,934.5030728729893,1,High Risk (Failure)
132.72657036284372,13943.464439610276,28084.56161946761,0.6140649847273983,53606.87941508402,7309.622674906103,12901.947814837204,45639.741269597966,38391.90286443638,122.3778685969547,11.487100959404238,19.26127542845712,6134.359485907698,1820.2952438437474,510.37836305058073,1,High Risk (Failure)
121.0586398574616,29213.937292243154,26896.220379279224,0.24102973233592573,55566.491166150736,14832.92027796763,8634.2584135721,37494.530929796194,37972.162262197264,207.6969495868638,9.932829723623406,24.26790984915323,9989.672514645601,1040.0449078065678,703.377459204164,0,Low Risk (No Failure)
199.77896459795446,8943.531248267209,32968.03516514502,0.18448787716439774,43593.56624109077,10278.90943851701,3331.012045664106,39097.64713920375,42805.10563441726,232.17022975807748,9.485155251111888,18.79107177957946,9678.160730150372,1992.7203195685331,1403.4459751228258,0,Low Risk (No Failure)
126.99122293242948,22342.12636618592,12533.368604570183,0.43663132089416024,33211.172465154465,6223.038699374987,7149.524194875569,20183.60336151263,23056.46320835488,236.13924588380988,11.146078197014418,20.01134235022603,4095.1802256718565,1545.4500211733239,1488.0486980948972,0,Low Risk (No Failure)
191.3113857226847,17734.546909692785,24580.67118022777,0.2241321796600787,45833.03601810989,12906.211045381857,5973.597853843997,26562.609458822604,66798.75088694398,274.70307061184735,10.03101227171269,23.40654782223661,7522.835254579924,1446.7431272637823,1203.8236398861675,0,Low Risk (No Failure)
192.4010111797154,28556.124970097477,18331.470869031946,0.7609633177608087,32391.588749435632,13482.069545148546,7188.541267284685,23567.268855952527,32433.607697991956,245.424968816924,9.964483972633495,23.70746493546351,9253.443384736553,1797.635639150624,1026.893122661873,1,High Risk (Failure)
78.16921475194064,4259.513788104376,33592.18305866411,0.6436337881196206,50455.33408701253,11505.60052588371,4538.524814456869,67996.38019956916,27745.861244421718,210.9484745235274,9.602890632983687,19.771216663159787,4675.9394572434385,1021.2075562359187,654.60570627441,1,High Risk (Failure)
84.66320690855794,4694.834079167441,12333.566307699863,0.9340768492714844,54531.86314906096,26761.460415627527,4180.653741855752,41581.21056460921,15774.752727609026,291.71487118366485,11.480060919935564,23.957735917555247,7136.518775550168,1951.0639080216067,1361.5748039250784,1,High Risk (Failure)
176.00097220785898,16718.967007818857,17871.43981916347,0.8812127324655137,45055.56807306867,29544.861785115583,7950.449952927397,44762.53905985477,59858.58915194792,132.55534043874957,9.601197579143571,22.204358159150523,9525.51470391218,1445.9047368761906,529.8105567835051,0,Low Risk (No Failure)
146.7041515805373,5999.2045010498205,9136.964651910019,0.00033015925947643687,36651.4961908189,10080.18983151078,1587.2590228989006,67012.8164436716,57508.64982981921,186.2833452416133,10.442193426757218,24.892687859815666,4942.481180330302,574.322888062639,1091.6375259707397,1,High Risk (Failure)
138.3028059850542,6011.781492237116,19457.227065080064,0.4593044789912889,33081.87331879474,25511.97704154774,9794.656327483099,47570.129025316994,57734.53286659111,286.6149333679658,11.099511050284933,18.846861127847426,6336.369654244363,782.6449070275003,1279.3377861464146,0,Low Risk (No Failure)
203.12835630305463,6068.764648617612,14744.723292456642,0.23812207142774955,25657.801659123426,10854.607396732206,8368.565917099077,36635.471992817824,41203.16449223281,262.84418416642075,11.821470597505133,23.13649704165256,5715.140482695184,1088.8118016281512,939.0594063171548,1,High Risk (Failure)
120.1421256233231,26557.62882280866,5307.015692262726,0.7596949977999118,33193.99941091977,19106.248869074767,10917.294180792112,67170.35137939014,66278.31637299014,130.273798371819,8.225959499447178,21.747097668671074,8590.162434629854,1533.0158145848475,1283.7727896100273,1,High Risk (Failure)
166.80798388663527,21213.377404093626,5117.879642666534,0.5239116767043972,42336.681785205496,24574.14157001582,4489.6674020808005,10920.902485757291,48262.23144867194,214.52734131450495,11.41832958112421,24.128700556530198,5270.013256228756,1159.9837837976447,581.8206808890106,1,High Risk (Failure)
134.4328979653949,4283.705474514636,21553.37851177086,0.5811479149732605,19299.284047378973,25830.680206794772,9451.924183926065,25714.489729028173,69798.55844927866,111.7956424446813,8.26085069833339,23.009285459364087,7592.96164510259,1510.481426952043,995.1676691944319,1,High Risk (Failure)
63.05857510876224,9272.08592689623,19042.521805629403,0.7393361958960009,30644.382641248354,11614.986353742923,10117.558602736332,17777.799410253363,69141.8274984886,283.54504259686547,9.365906220163925,24.45178085651027,4236.186114585811,1022.5936768647252,1403.8009154460062,1,High Risk (Failure)
176.689568076353,23939.11814789681,7690.978910247639,0.7535853589994951,52568.40707415383,29161.966822613063,3781.718430558833,58694.73666704994,29439.3421911604,222.41399972263807,9.535772078530517,23.651673991379887,9698.72606451505,1824.5895058863468,964.7999050541833,0,Low Risk (No Failure)
148.8690728964204,24055.33457092564,6624.032252069623,0.09324491922135836,24267.68901227387,7541.922410774797,8016.1414793579725,11899.936777758176,31843.797065617535,237.79324973472916,9.093879048419243,21.104104778809166,8247.081186566782,1149.061065049208,521.2449671917311,1,High Risk (Failure)
188.05704125157786,16568.915248575933,10013.002632969017,0.9986478849342207,51657.30079687144,8567.50899573377,6215.540048042751,14408.217532252545,33851.000624801745,220.19225679316742,8.435007064198563,23.454120983225188,6664.810110661581,1516.402287792408,1072.4595811887516,1,High Risk (Failure)
153.65669830348034,15850.568724261253,20179.499874711903,0.4962351738699511,57018.64358623794,19937.078343269415,14963.603868474529,52724.650724288884,36786.5611583689,128.2430669641505,11.246349710882985,20.07857213915904,5563.087561213055,1092.1491707653126,822.3731058582862,1,High Risk (Failure)
189.44378244666822,20551.571381835023,31214.593288401567,0.9631577002561021,45252.31443111315,11786.534597479344,3698.108705045347,12987.425375296238,46419.99900070351,228.99727560660466,10.85931386151316,21.243024031957226,6887.828810955902,1185.1398510734637,919.237171251714,0,Low Risk (No Failure)
165.25524873648578,8773.368433980495,15091.061356511293,0.6973580668337706,40878.85676515678,13739.61624723851,8323.66553575376,15839.925307080539,44765.23433577659,288.2057773010737,11.551009351959934,21.02280338811853,3036.659256411666,606.0320795857588,674.082995689208,1,High Risk (Failure)
176.51020099257653,5148.796628978669,13996.572201674147,0.5254892302093175,56086.48941242058,28984.8403110955,4682.495912057013,55712.156551717126,14633.21024633635,296.6707562267573,8.41681733177434,20.812046245022632,4289.86976035819,1870.3675506314673,1015.9322991358005,1,High Risk (Failure)
93.92717438531626,21677.414463990484,21944.38343258547,0.3361096462206038,27634.893326710946,14300.311028649247,8430.36830846619,68175.35960625115,43136.18580218034,119.80790772325219,11.24475166788724,24.090093398869534,4240.084689458701,1066.8445290174745,1165.8338038175093,1,High Risk (Failure)
209.49872236304236,10924.540218588232,13738.175667672109,0.14104969024984015,55853.994017974124,29872.354832418645,9804.228583922546,16360.223927997922,57719.847772919624,233.84328452951883,10.597493912185191,23.90731664873317,7504.4993934460335,1106.3654794237823,1064.6115349848226,1,High Risk (Failure)
150.62474244750354,28158.306607996547,24724.82689954826,0.3811750009651801,43206.16336104629,14452.70761163968,3034.1629514622755,63328.98763184987,65602.66036133075,173.0642777447974,10.970621525155678,21.073308182346384,3747.5944645193813,1248.3095879663751,1366.6779357525393,1,High Risk (Failure)
183.7557001098561,17160.30316623391,6331.85794907981,0.04077327434137146,53005.70164508552,15732.223757523798,14844.426002233235,43115.03842733794,10693.84532156212,167.95468538938306,11.413889591764546,21.630124802820273,4747.092533208928,1124.798974398634,660.0620755949096,1,High Risk (Failure)
97.0360342024477,10836.899506885622,33896.0792291425,0.2589960732996327,37816.2054350088,19612.43159946668,6279.41511278279,62595.926059049816,13925.602239148158,186.3926471247549,11.369265559545871,22.11587458257904,4815.78677688988,1837.8863605220542,584.5294391266693,0,Low Risk (No Failure)
101.08425083528127,29958.26339098323,27694.330365212372,0.6319329628514445,18599.36810733135,19617.542613399637,12568.744986199841,47046.76793292175,60764.06127252676,236.3386147087916,9.013036695888639,22.111634384540462,6626.919439203518,1872.8392410339334,601.2711977632275,1,High Risk (Failure)
162.78708451301048,12763.712523969887,7170.455296924566,0.7651902029810298,53551.2211496954,6723.080533628632,14883.529115635676,18027.96027995936,38884.76048561146,132.23641306557974,11.03194012561819,21.30422099551604,8753.986982654369,1421.3346997850144,1026.400965938686,1,High Risk (Failure)
209.78476386572495,2993.8632862521363,22636.57075789345,0.7829883572657359,18162.94263134634,21822.559004134957,9035.246516104551,48032.768091299244,21237.822862678364,193.82151150096473,11.974987372809881,19.085164195129597,8369.57610697522,1184.5241222675836,958.6557828766654,1,High Risk (Failure)
161.23390059977615,15169.542850461557,19703.57708380346,0.7463061694876093,53580.05902152946,8559.306094625417,9068.4540964923,24592.305662416762,29843.59105585775,298.8688371320104,8.784999939138668,22.90925925634393,9810.779103463516,818.5875271971638,1319.8895291175204,1,High Risk (Failure)
210.07443702942308,8313.869662620597,21490.09007011073,0.37529807537312,37878.744811088254,11851.072298164905,9828.219700581805,16171.934968249276,43044.0809594731,186.48597592803384,11.820896801193221,22.932574889409175,3763.327610311583,533.1688756417138,762.8366683609294,0,Low Risk (No Failure)
90.06726093045168,6722.105146705738,5610.22493202803,0.06313016032445307,19293.15453923214,25834.36935635968,12540.819746161118,43966.83715068187,58370.76801115285,260.58706062076163,9.089540409210553,24.27392214428806,8000.240462596934,893.3750268784033,1287.0031577730915,0,Low Risk (No Failure)
167.56010996707116,18870.503296601633,23850.090958959612,0.39559918184982734,21859.92979835566,7834.35203523576,10954.894869295083,45010.680687658,53223.617763744405,184.17519205341978,9.435768925700524,19.027559298384695,8623.15423479077,826.2887153066131,940.9333595508808,0,Low Risk (No Failure)
75.65346570416024,1179.3308565860036,30764.417440245703,0.07660361631371004,58628.695228794895,28378.66765625925,8790.752285260885,48114.76560723937,13206.704170034009,223.86547943144757,11.919140199839653,22.297521802300665,5351.944285816859,1517.1390044838988,519.3794353722953,1,High Risk (Failure)
79.97133023469573,26275.003837289183,13162.524727339329,0.6903933385936837,45498.14698113524,23805.548044109404,10932.95436830888,34403.20040998417,15891.739972462436,237.6625665091237,10.868405777464782,23.803482454418678,8300.222312059472,600.5116215842038,1238.3826358154602,1,High Risk (Failure)
214.5315457845152,17565.174614794,8957.894772614325,0.8515511170493673,17424.908179222377,11321.306749565349,3347.526671418728,24262.637816520022,25340.957572442843,113.01948275512869,9.68559072794103,24.561356136764367,6545.466917801021,583.2044101898312,1162.5411251474502,1,High Risk (Failure)
88.30351213183744,8856.367474159264,28225.145000687873,0.7372696831257044,38497.77620179521,13939.869429965336,2764.8545857235686,53157.99621888598,30781.376336285226,209.69316270164214,8.26082785421531,20.296313520048763,9643.988219366187,1340.0348541364556,1303.6247988587374,0,Low Risk (No Failure)
91.92679214866322,5878.860794146264,14379.689430656583,0.34467314101254776,45873.41839179765,26284.430132151447,4117.143998548438,40748.104815308674,62235.93956410211,283.50967689775274,8.990550998086716,24.38975154840137,6321.842013766745,950.3672425032914,803.5155078592878,1,High Risk (Failure)
108.39461079383514,21947.023881387526,28329.277090330674,0.7969926239790721,30202.937356508446,14003.89223889431,12355.719680303391,46818.95178520965,49725.83298075177,143.48770356026168,10.04811014244549,20.585731506740625,7455.41809837626,1250.6810100613693,1073.4522093724108,0,Low Risk (No Failure)
115.92101953389101,25247.439850806237,21306.31743948326,0.8327230977971465,47060.28441203899,17222.570966350017,5134.599281962816,50562.04439897417,67935.55566843659,192.32187100312336,9.68925236857889,21.09878440640191,5708.558307364123,1134.7085478768445,651.4316589676542,1,High Risk (Failure)
151.9156981087859,4779.29256199774,25812.737610472257,0.922120435961218,16721.88652451856,19269.37544915759,12487.603093539667,29646.474007089906,68472.41513510625,215.55841224782463,9.86931194755127,24.015713117746046,9775.017980006938,988.892535083468,1437.0950085740012,1,High Risk (Failure)
140.092690788933,26293.931340967956,13300.098265372457,0.6742101603876477,23510.8201571568,25003.284022073214,8705.066396161583,24327.93079014121,39550.747930158905,114.45052250147111,11.725288597479254,18.5108855695579,6362.540056194504,738.466361070203,716.4786568218566,0,Low Risk (No Failure)
136.37606369958422,10925.70219090264,8639.14113695491,0.10614465282139185,51248.248290737814,16266.206152523117,8561.581199252278,48223.4136941693,33975.532881251114,151.20584236748726,10.810550942274979,22.969734564324046,7692.9726086482,1748.4583338517052,1414.3672572687406,0,Low Risk (No Failure)
71.59150204712942,15525.421570798375,31847.319276939972,0.7821940360464525,46452.896903388144,11961.112251385835,14335.303296166692,22681.45665153503,43077.003761762106,220.16633931867568,8.989131259051891,21.61865533837844,6645.61075600812,1386.3935127587245,997.2858319678405,1,High Risk (Failure)
149.83753407352378,3712.0835843393756,21966.92976703863,0.31494030568124953,54865.60699571537,5572.646664929596,11242.372679532922,63321.49396960398,38032.186831350584,163.29954948888664,8.604341078630329,19.256908221145935,4918.409908225976,1039.3966250983642,1215.107863050268,1,High Risk (Failure)
125.91329520545631,18135.285766253495,10093.308192743665,0.5606568535006818,36745.627031031836,20748.67401745847,10142.924040248787,68142.43266484892,26586.954697489662,112.49223767046172,9.974624738719323,21.832703402705416,9986.46145906296,1049.6968291994908,550.2388998054606,0,Low Risk (No Failure)
85.83325345027842,4254.99108775607,7415.496757745355,0.3394422057373845,56195.311587679425,11163.479946923542,3090.886916858622,56643.57512228699,15378.095773375071,268.3971236607432,11.119990275282932,18.50547896396334,4075.6645670597236,811.3947508564131,621.7847729455175,0,Low Risk (No Failure)
95.1286277167683,21379.41067939802,12107.835845335469,0.2996978313800045,35621.946707856376,29372.417218891052,5885.872977856124,12701.069113187994,62922.002471130516,205.98911881399965,11.106847111563651,19.112205938465884,4998.311440587737,1086.682441606306,666.9456986181915,0,Low Risk (No Failure)
107.24647904767093,26928.88654707862,28373.125620159397,0.6020495435493508,48954.20892679967,11469.036815838928,2478.8740743526796,57473.858179023,53699.60012235401,279.5932984556132,8.286754746003393,20.565513736496673,4299.9420472406855,1259.9691559634362,1463.0562755681626,1,High Risk (Failure)
199.85148372882963,25604.11406648482,23064.62918379363,0.4866100436893823,18241.661625833403,15587.190292809399,8982.115568023575,29543.357389989917,32262.925947656997,228.1530139415289,11.30223637517031,21.860730548465565,6756.831153473285,770.8221255653541,1252.4854289470013,0,Low Risk (No Failure)
133.43048265549126,19993.292032452326,21554.84672670755,0.6084079219394797,24206.251746769733,12079.581794525402,8815.676362941562,55158.37356713913,25839.281316147837,111.93653020736214,11.546747572673578,22.32075065572514,6408.286938908026,1247.665369540418,715.3635101354462,0,Low Risk (No Failure)
189.6257743935524,3167.6312054531495,19880.896827606328,0.7379480082833204,57616.61045266745,10278.10485539363,13443.92600814167,67236.17492352962,16489.790817909976,191.607659231809,11.663222456406714,20.14219701100046,4489.303610413563,1454.1115981115368,1178.3491951442666,0,Low Risk (No Failure)
200.37607250125419,21103.076724347164,8427.453597741689,0.4506882886051886,26539.29125932685,11928.571039489332,10353.861141804011,43246.80292541211,53196.8600305001,158.32786440897644,8.368146228226452,24.572469573047854,6445.210764731296,1424.3790338541776,1172.3400158582126,0,Low Risk (No Failure)
105.19659903632427,6745.791512883734,33795.30280215555,0.16641943793160274,22603.066849559335,25506.989016772488,7520.246054204094,15012.980631451283,35767.11954573922,157.31184357234042,9.913091696622157,24.13587674920006,4054.6005824957783,1325.6678460432588,651.0369637440007,1,High Risk (Failure)
187.01089662528634,25537.456381098244,17270.232102088197,0.5658086341861742,17611.33321924263,9980.686094750503,8930.825809575477,14866.880275067402,33313.317798203105,102.57953248078164,10.771278239716798,20.843632976638787,3834.231155433793,517.9357344193223,1061.9729923474226,0,Low Risk (No Failure)
133.3636814211025,13057.469228699892,18979.0024455841,0.9757893363441147,19123.191802468107,18187.159469883394,14891.873224338826,58407.011267408256,29781.851886782257,207.11489344711492,10.962097016247625,22.528112291121577,9754.82193632218,1929.8706023934224,1417.8756196656414,1,High Risk (Failure)
152.33961376613132,24801.339383656177,18491.81924971346,0.9903977960919648,54941.10218653055,8705.103316717834,13529.103032497223,13645.316385398819,36209.53103697408,271.82494565030026,9.547704453342135,24.94591772832123,5741.008025367366,820.1596705634582,1398.1421192564708,1,High Risk (Failure)
84.838439348914,22234.356983054444,6160.548747715746,0.799891304268817,54627.84744727606,9495.389249525593,10515.25718355878,54515.28726828156,39179.024079492236,122.60956963061034,11.225054689659945,18.615915755377785,5492.607519793223,539.7465715896911,1435.2513679431236,1,High Risk (Failure)
97.02090182029568,7214.70209736348,33530.98774245818,0.08410167113160605,42859.24989871209,18096.491560207156,9309.281659627339,65824.62415777161,61299.5365596604,217.64436491882356,10.36095900003642,18.23186823623959,6087.55405533721,531.3512473981207,1185.1934043951637,0,Low Risk (No Failure)
137.31713214006962,27832.674608051966,22119.325476351343,0.7147693584992595,25488.1425162683,28511.834076535957,4623.716537922624,10461.462158638715,36992.951383134445,296.5151290497,9.991814210876734,23.59827490149406,4393.500265977884,632.9067877914996,508.4772872091505,0,Low Risk (No Failure)
114.73721933817504,10499.422523741654,29610.350451425915,0.275076785137923,16960.091115963816,17352.151080779026,6170.204835843968,49434.00755003586,31498.580983884305,206.19260806062795,10.851192159468756,18.346152767236653,7787.714641712184,1164.3372674075013,900.2211778747023,0,Low Risk (No Failure)
187.43048984375636,12871.002705589386,18560.248639612437,0.8266371477710056,16090.691737387777,12907.945925266697,10465.516086121697,62605.89444912237,35302.792118321086,180.26394208970046,9.988785419979898,21.736350495235904,5814.2546403323295,1732.5686449482228,1161.5782908664942,0,Low Risk (No Failure)
80.6655064242392,14550.568884217575,19371.221770238408,0.5963276050038621,48727.2977457754,17986.81542148314,3971.195727996793,20432.050963240967,21407.937430978098,195.28461424698006,9.818505196280963,22.592715328318693,8882.495515577535,635.9247471648267,803.4946637057783,1,High Risk (Failure)
194.73902770171338,14292.540903362878,17968.13863364506,0.8480946638011214,49451.47069396567,14921.481654245543,9130.690446440647,16459.590121459798,11409.962313427783,203.59039562150963,11.485399695142398,22.48227366381832,8676.43645105154,1349.838655056561,824.9524529811995,1,High Risk (Failure)
183.6674371001784,9040.494074126398,9108.953714278845,0.8747265052212082,56472.64004762001,21559.177379667017,5912.57306165281,68721.87308746175,14061.739731067646,168.8320059223824,10.565483405751076,20.66312404584191,5291.849072855702,637.4577421505842,1348.50810809932,1,High Risk (Failure)
173.06077918059353,13632.085582368562,17111.990123147905,0.8307927228390741,45326.39433380414,11481.518206304845,6116.630672159591,40535.460119719704,22329.54486986003,200.5904998369495,8.833517642354614,23.69402170969252,8382.887196935566,1695.4513280164479,1462.349497040731,0,Low Risk (No Failure)
67.23636622568608,17186.964332822783,20803.06721808476,0.23632601760945793,56079.67853502137,17816.536134182435,9105.57529622744,50426.64901119983,36448.47843131059,126.92100690376728,9.716924453254576,21.45981727772866,4998.684618336463,1387.6896715915896,1433.9917871951645,1,High Risk (Failure)
137.45233115363226,16729.21024552272,14181.775946485277,0.6144336548350953,21181.589455870624,13834.497173305032,2753.162616844893,69331.00489049635,30742.79733668148,135.03019888493128,8.999757396519609,23.67450096026402,6987.437038767541,1314.423706312903,627.1971751999567,1,High Risk (Failure)
73.9072460939878,22508.83974076287,33100.63780001449,0.0260295498171349,42913.639051952094,16333.236782934608,2237.032348805361,34385.13668545918,67277.5707949326,194.2197510485865,10.66626182943789,22.460760155541436,6647.015567320419,999.7297774808267,618.1654199718593,1,High Risk (Failure)
192.36834395795935,1126.4278187408324,31466.372354519404,0.09010327971722831,34923.942858777824,8238.153168855426,8676.428663302322,13077.212760559145,47858.17013114028,113.60746216868873,10.174455105963766,22.652336137756713,6608.078256511952,1557.8617947938164,1254.945106596956,0,Low Risk (No Failure)
93.55044438883213,22541.82354596111,20654.991454845494,0.07461905556870818,53249.30409746438,19717.448840359793,4367.51663537449,66669.74568083079,33023.58940945009,120.97313176341267,8.721901658695987,18.266204280617156,9776.662431244775,665.39428085832,739.7083453457749,0,Low Risk (No Failure)
153.2681690886821,2509.329323927812,25849.0238181754,0.37242675117596824,52585.679257082294,26010.54231351986,12170.631093455859,54710.733952803916,34127.07881582191,290.04436714748846,11.957429088521566,24.11219781239058,4104.6131078293,511.2922053606853,930.238992401722,0,Low Risk (No Failure)
78.73072262841694,21763.55611271,30131.87295867969,0.2854477871998655,15333.913854629258,20520.10213171984,1843.6020722042704,19921.65023082157,50314.16091902409,150.26374805166887,11.831583624497654,18.342981124128343,4861.169203274983,942.8029159788375,778.6835448917789,1,High Risk (Failure)
178.19570411625062,22201.986507103302,14927.257492340781,0.4239125874876323,39156.40883748552,11706.839158717592,2652.082530595083,57131.08280379382,67098.66089166787,138.88084382360992,10.066568454127017,19.74594000289619,5616.95088313779,1866.1474982581287,1464.2236018453714,0,Low Risk (No Failure)
86.17981139066707,12628.139473962201,24833.917604771505,0.497746816956376,46770.1084305236,13080.839426696357,10419.223712025365,19606.09334210641,66919.74022739622,156.5110020727244,11.73941125195886,19.87943617793824,8437.225550178984,533.3181297781689,702.4794398540555,1,High Risk (Failure)
216.09763213758637,7762.439078226873,12103.941037883564,0.6263010947738659,51887.02302389962,19201.16604468788,4453.061308687587,18572.39556149026,66246.91364440929,126.43322127497194,8.441354953905819,19.04663604789119,3624.934091694821,738.6336056649588,970.6613944326762,1,High Risk (Failure)
143.7327409911586,4685.975799351471,30472.126247104763,0.30057710805402216,27120.38998873897,23740.14216455885,10856.406038004996,36696.746930088775,56572.21841533648,130.78987093002127,9.372443888408906,21.399495121178298,5861.359056868166,1512.2589738356796,1224.2610749346627,1,High Risk (Failure)
194.9321868460613,15782.329790114176,21185.19721952886,0.1490422091752075,23451.34999009061,20503.428999017182,13828.919511697508,55754.4473458196,30364.24841093385,216.5383063595817,10.636881057104315,24.51795271931372,9786.918001770722,905.1343643552009,775.1106139269918,0,Low Risk (No Failure)
118.28317776769208,26834.13230039937,31135.611390509534,0.6858724552314401,21576.96070233961,19623.437466955926,10309.279930364939,25917.310921317618,36646.92366713961,121.30546675254476,9.526897291120026,24.477907522972075,7188.040910774813,1214.771789409218,1201.520278691443,1,High Risk (Failure)
211.203850332891,12206.857176993704,18931.10960546123,0.18610056193924152,21948.45485290193,19390.593764679943,7911.80975584429,65769.49415438913,65013.921797097086,158.003728050342,10.601468996613841,19.97793181817007,8029.279385449442,688.5535711768168,980.6354271046323,0,Low Risk (No Failure)
92.36703186531258,23642.779017598816,31246.459023264324,0.039054618412556086,52818.22943000385,27471.85401566014,4728.054604257397,65231.70378681204,46819.32819632099,132.29094793005052,8.71444440548657,19.500487087731518,3914.8991530380545,1161.5847803699853,981.4406084751083,0,Low Risk (No Failure)
131.34443302027972,10779.162221782288,11849.925097799314,0.28944919430436933,47479.66247930143,25556.557565342777,6824.51795255246,24729.895547593613,57881.1467239697,241.68533941705064,9.456822227148685,20.104510213107627,4410.8639349548885,1379.5768863776507,1427.8708151139983,1,High Risk (Failure)
142.87368443401263,11635.810216352264,10028.427684398881,0.7344924006110509,39696.68985734458,20874.67724656102,2731.786822171931,28772.741268749633,67146.67932955186,142.47314645499748,11.931590098672048,18.9972227044888,7561.643425931314,1022.8038686358456,1295.709025573487,1,High Risk (Failure)
139.4185995521978,16589.853003493914,18737.737395826938,0.17761981945520222,27875.041045253834,24656.245706218197,4358.69312690977,66596.56604617828,10378.29677915084,133.1480666913145,10.009263230392538,23.942004853488513,4190.0491201226705,1985.6023522349562,703.1233736235467,1,High Risk (Failure)
73.46042596150126,26043.733091035232,7804.770847519693,0.4106040671489124,30661.848170195703,22737.619799633118,8304.501379009362,17256.922091002285,28488.556164540045,124.43479681107073,8.827048797514754,18.478084158852287,8553.755619788695,719.4150224628982,1043.8513295274429,0,Low Risk (No Failure)
181.99151338797896,23121.172533398356,10091.402491847319,0.6685131814678218,56887.45871178695,16656.203196082537,14342.0487591441,27626.415702512022,10086.534999097434,194.65587757755594,8.542226568284779,19.580600788500053,3863.9568958901095,1790.3221657326687,923.4845073466215,0,Low Risk (No Failure)
153.1154243063038,7248.424310996171,13239.106394509488,0.7192878001522802,59065.51172235881,15011.345217043618,2006.6229575887378,54029.83827007643,34229.8641563476,278.91638153187483,8.465817774712415,19.88686931899392,5429.21608998214,1851.7991950125875,682.6756859760566,1,High Risk (Failure)
73.45708897839958,18288.13683694701,32236.718012384983,0.4453196182237519,42416.08396691001,23921.231637541172,13750.64960045751,35521.65228045098,34244.955997675796,223.20790084178054,8.218465048595812,21.038528486054084,6301.663596368629,1253.1292327716642,1115.5792586722862,1,High Risk (Failure)
104.39434875599264,15593.3570083059,12407.494853263714,0.8166787392759234,58852.494746825236,25844.70828246605,13527.420500853093,65250.35116562775,33142.07552507613,261.9180221413397,8.716818616892175,22.24437873883812,5417.766221285334,1279.7695122948517,1428.5146399174782,0,Low Risk (No Failure)
145.732429515693,21093.474403202912,19566.986068502876,0.7332782958676516,54059.08975978864,22622.995407544346,4959.161961027747,19668.95165730179,25460.626595039637,281.5687543936794,8.262478313546309,20.090336895888477,9461.73998322141,575.355930209237,1219.5353460261572,1,High Risk (Failure)
108.74866225568653,25903.604087357824,11594.021358857713,0.4232591427658292,55091.27762542064,5892.717742704296,14510.670596407012,26397.490774664966,14453.555885424266,148.24852672757623,11.621244591119606,20.506535271553542,4949.4579014260835,531.4543246329729,1058.764591648096,1,High Risk (Failure)
168.23739992329672,22798.713243911276,10395.444452275975,0.4458217820716792,19001.51064990319,21529.157731694413,7993.388988501101,15004.20009799425,41020.82782995833,180.0820500532804,8.496782304589438,22.735397073984252,3434.1289619658833,1994.0200130676644,1269.1754207534527,0,Low Risk (No Failure)
171.5238665606879,23696.895321863423,16705.87901749707,0.8521479838520092,53874.871470553066,13990.962043899544,13783.40096322827,21284.794304154384,65934.35658106828,192.3080904125669,10.062422833743115,23.194398457509948,9796.977391514887,813.4541189236397,684.1758240282127,0,Low Risk (No Failure)
150.27709066952576,17568.28044755998,10750.978134849032,0.4081646649015549,38050.03758513925,10714.301924697753,7229.327034971841,11486.270537988901,16846.79591183609,268.5711812414378,9.82362708321044,19.210662956501558,6036.641219564625,754.3259972925971,503.92960408150276,0,Low Risk (No Failure)
171.19249909488764,2258.518178778265,27387.981839966153,0.981521014576294,15318.891035132208,23220.425819383254,7673.622779986656,23824.694237141317,14629.349592381433,250.53681436231182,11.386320047711036,18.53845121301736,4168.587726700101,990.8417823451147,1362.1831063595694,0,Low Risk (No Failure)
70.7226460401936,19898.71405147438,33372.138782068825,0.46198082566640997,31611.115858386074,14712.98600946707,2292.1225539432735,28914.17536206248,20081.430499753988,142.13649756019248,9.988295702080789,19.018847202936463,5650.096141750011,1640.5127058999892,716.0906381190773,0,Low Risk (No Failure)
188.86880688735664,17554.73774078507,18405.02691559786,0.9946901299645251,47035.37626380085,20345.09814049502,5648.813767800219,20372.529718910173,60302.045914566974,133.7629929199878,11.87184608353182,20.636587635349684,4130.002681793399,1906.8512872795538,859.4612738219361,0,Low Risk (No Failure)
165.42167523722514,11071.365754865235,31080.203237220656,0.6738653939196881,48599.314477691776,20112.464813329032,6549.464927519654,38542.60578320777,53748.09590448797,127.01064534179831,9.285943817450102,22.316141641288386,7286.267686997363,1028.3930895746594,916.1667496041844,1,High Risk (Failure)
142.89239968645518,11032.536018032884,22945.816355536805,0.5717096519584648,51784.5871155248,15324.164819116,6436.285975112134,12103.830019357114,24517.50763220164,211.4507763660508,11.877531377611438,24.283229966559425,5950.105374682611,1672.7161007542957,695.2062118140009,0,Low Risk (No Failure)
145.7496126163389,19852.68108305801,25577.87662124659,0.2619098918753894,18574.06648346594,21197.181229332302,5944.052297252027,29013.347143729014,19339.338476164376,289.9144591270634,10.093445717663107,19.832469904761247,3852.097338658631,1475.8581991691703,689.4651222757777,0,Low Risk (No Failure)
156.55802665543277,4733.878683673609,9878.848889471512,0.04014777002874037,45953.348326896914,5901.494051556679,7261.350320865483,42205.242170538986,35521.181127847536,122.94667214977373,9.972617548437453,24.14094464765572,6367.101455955082,1609.9949424618471,1332.1893673215473,1,High Risk (Failure)
174.416025805392,25901.48959295539,22286.882353338027,0.44202760843042377,33281.44198925224,28037.593177307353,8537.00019521086,65665.92392132113,66752.64344242399,172.21978192693584,9.261717604723273,21.41034895880451,8678.860315212743,1373.462163429932,1253.552714618256,0,Low Risk (No Failure)
140.00932147057387,12662.535073475057,10515.371806678933,0.48189123127043954,17990.062750168265,14622.253374229542,13775.371034611726,54730.28708299136,69734.3619241189,244.8935151230085,9.323743013942538,23.893428582402862,4204.526887853068,658.4833218578539,1385.7027876032955,0,Low Risk (No Failure)
143.13786812848122,1570.8132460609977,28202.54632716089,0.7729335403597556,43297.79048514073,7816.327169195398,13103.496131712262,24667.815893865765,25745.91273192306,121.09428059371876,11.221858006301261,23.573888281940295,3610.9038952931705,1484.159207538759,1109.4176959666174,0,Low Risk (No Failure)
141.42305121118085,23285.56607425988,21116.24538184666,0.5791251852038592,22912.831742020462,19729.574815301567,11938.033980485434,44418.4879024028,37535.00936017298,285.9459959408857,10.549419426442363,20.970979258787047,9589.320901772331,1465.8518519999802,967.3378176002905,0,Low Risk (No Failure)
70.8167599155813,22696.69217183219,8761.36652324563,0.46778977047254156,16961.530979274536,13557.905024283793,4108.063205021592,62028.67771486724,25002.258296976128,174.95654285216978,10.34161216488442,24.61795573473664,3868.276360963054,1373.4192560333772,1055.1473934582214,0,Low Risk (No Failure)
143.05308562179488,6834.081736377504,14250.652118969309,0.3020488654893402,29069.814450565966,14706.82476990662,4130.280455572813,58798.207119141174,47635.36470032095,171.68355908648755,11.055749941708607,21.14253998605703,3262.2674507274014,617.822537750473,919.3829783791648,1,High Risk (Failure)
194.37780845867525,22893.04365376646,8668.661635417986,0.8155869805157686,53339.42481831468,5542.000291674044,5101.344395273907,18206.683663838583,39066.39924190396,287.9670849696648,10.851598608332951,21.00873409173205,9805.13039296967,700.8093421018355,1313.4177219636645,1,High Risk (Failure)
161.82883992698186,22012.179365605727,24930.32874394143,0.5026493346222822,34517.772589857435,21756.633617844625,6362.4893842768515,45320.275359344574,12370.433167237292,286.7799394747745,11.793439226033788,22.13262024826062,4611.915865900826,1353.0745667060419,1063.3180416101966,1,High Risk (Failure)
203.67283458960307,29306.31090042256,19789.772873135953,0.8151445974257844,17235.091765536417,26056.8525658279,7239.8860232845855,14135.983670446174,67047.54866702427,299.54249637199626,10.206668803087954,23.00377741983194,4620.382761608777,1322.4114823149712,1220.9824177529829,0,Low Risk (No Failure)
68.37680322999559,24557.202648709448,18651.551144244157,0.8351261633432041,53460.74436417908,22722.615201070817,9378.288011519382,41555.30956424026,63656.57941145842,160.1221165742329,9.358831393942904,22.63388584682707,3536.0293209987085,1384.5402711184367,919.7238506593226,1,High Risk (Failure)
66.28310627866438,22236.426455345187,30462.089832619033,0.4650886629145451,58709.83650955439,14803.602991608856,14253.926794070487,51586.538041487336,29007.71023196243,181.69179396286808,10.869620176116392,21.70594309377883,9589.697644396067,1269.394415266629,1030.2437005736015,0,Low Risk (No Failure)
107.79609177420369,16851.833250246462,9743.979371580937,0.16544164001887773,43906.19206725502,21349.308142769158,10125.824658387766,69406.53482519096,19865.995252041026,104.82593331202874,9.924343387313417,22.208228140648536,9292.555337128173,1952.0853897655013,624.1983663869308,1,High Risk (Failure)
190.767643193999,8813.743942805995,33547.40928319609,0.2436610125418449,42478.89299842999,12295.938086511633,4356.471724881092,65479.38745714917,31693.017852743058,189.59899431736804,11.067418107904391,21.918961838247554,5643.930906894182,1551.2523552641594,632.4227282050664,1,High Risk (Failure)
187.97684095157044,19792.879223601212,5761.144641269468,0.42385789416927167,29504.48245216228,7438.149757420224,11779.617043323138,12736.717847418173,11691.012838763938,179.77321613222634,9.953207133036114,22.15966839921374,9264.19971508241,1983.449776629959,751.9255596355379,1,High Risk (Failure)
119.35056130524244,28271.51398442078,17856.91513417092,0.3676895225363531,29410.35184358348,29497.25806178015,3124.4425130998548,66148.62092634912,11805.459203667559,119.46933562562899,9.677327749310573,19.24430113050918,8939.83655494329,1311.1256375780622,1464.5507890507379,1,High Risk (Failure)
168.87988833195408,11629.98443399756,25038.01206367227,0.7166624181336969,59287.94893026969,13400.154077470306,5476.368491370807,21688.64197419553,25615.512423788496,153.91085366459072,9.565003926517345,23.020024571833986,9359.088699634605,1703.7320589063297,1239.2174174664892,1,High Risk (Failure)
153.89457888334067,6970.577657171313,30332.789993602604,0.7741904917143247,31847.225312157843,7328.512726121915,6568.385996570512,39188.92644165766,40452.11552403133,228.95978637789185,10.030214517608446,22.998131466433083,4288.33923412307,1457.7654944216713,710.2569671838073,1,High Risk (Failure)
79.0625075193677,18533.76869165143,5553.977146797079,0.4996906028861203,20124.150117241417,21166.91722485014,6936.762323855263,18539.921567861013,56411.57178255492,100.32110699189916,8.79411502551738,19.065754489590688,7411.310241566001,1803.2738023872448,1066.9111978485807,0,Low Risk (No Failure)
132.97119747472576,27974.79088301395,27082.46433011256,0.09993690656861953,38886.356764068725,12267.495341173013,11745.959872286656,31421.118645312472,19276.385064495847,201.79749677083385,8.633273284300753,18.857510432346864,6549.061106570532,1139.8390881029613,536.7965222739583,1,High Risk (Failure)
204.06688914613287,23194.1726862362,5557.121562952966,0.28391739966443064,43892.5716031833,10681.202279598863,9845.138691266826,22742.1536879594,55674.71214329397,145.82187643597632,9.18055818544469,20.084928946063847,6425.126366032191,1848.2003311042895,702.5304197280193,1,High Risk (Failure)
115.44386687243491,1904.0723642457156,21815.665546852695,0.1385474424446943,38052.09378530034,9727.28801259451,5238.120942523315,62016.55038074587,66944.30959865564,235.5240713294273,10.718298747859173,18.909409722819102,3867.1823113259197,1742.88133102189,780.7347421754291,0,Low Risk (No Failure)
119.38758775002042,3747.4285286009804,27671.297674771784,0.6224833190290374,44732.803656712844,22222.82544247038,14682.67296038573,27581.909775537813,40274.59215814888,262.57068797875274,11.854919114389848,19.051052084055712,4610.716262192556,869.0582311279942,1432.003283303111,1,High Risk (Failure)
159.71365969088112,10595.725543120034,6475.669706960662,0.27952788541181894,16719.035774513086,8630.378536337892,6709.792358894155,18163.639030520193,26641.365041776684,188.71781070626662,11.056344406387595,18.99458417623255,5786.21400282249,1576.9695919020587,918.2407103403046,0,Low Risk (No Failure)
130.52203951011649,13257.911970065346,20195.03603110776,0.25653261761097845,58170.08257277634,8108.414335986631,1927.9700092523376,56725.067457257566,23074.517302353812,194.71570406717976,8.736422824471571,18.63560560297152,6023.935327050505,1128.1476139411875,1013.7940163279677,1,High Risk (Failure)
185.50487571404756,4259.106272932573,8872.890495789,0.030541978149738358,22772.896842648508,22209.15135405075,7776.260885371816,61742.915109310954,49135.7395359194,129.96257318795702,9.362011488010372,20.918720627301248,3219.284970520372,1828.2711880314905,746.4927915767877,0,Low Risk (No Failure)
189.41221175866946,20949.06071889318,12560.442010371575,0.6058529683838958,22998.12695796918,11742.96010239773,7555.808303191797,24698.86620350677,64790.94056017159,226.87491058369523,9.454530641925714,20.671962823911134,7478.855307411861,1913.2952031413058,1016.6514604239306,0,Low Risk (No Failure)
95.5155459092719,15149.105663099754,32964.85157640897,0.2233714378273689,26256.02807171599,20229.030325988504,11729.400501155802,65602.95190242444,12842.483654884023,116.11854536948545,9.022578527463232,19.642136903183744,5483.7622108119285,1793.1363964346983,1499.7864387066695,1,High Risk (Failure)
151.45722391727102,25776.033500698748,31292.878245273052,0.3228599441694525,41592.70320682206,21337.37674286358,7162.657159563643,38832.45143738975,37124.388872036776,215.12742719645018,11.346718304590409,21.72965003166591,5614.238590540482,1721.8272036036315,1013.4470674111404,0,Low Risk (No Failure)
160.83955511298527,16492.391888006172,12884.42823658825,0.7337360117263562,50149.39898058885,12698.53148864634,3613.4357507403747,53686.50342064556,65104.520615482594,194.7786078911655,10.280066601301659,18.32972460737336,4799.0432301663695,1589.0665444207127,1303.2193394935566,0,Low Risk (No Failure)
103.41584508382334,27756.70904850359,6132.419509023001,0.15161063793047602,40796.68066189274,15738.636217965073,1893.3902656765329,56736.90295313825,56727.27496391505,183.31379902867502,8.848694990965914,24.314774338400316,7130.929907560027,1353.0240265797593,789.7424443809963,1,High Risk (Failure)
64.98145326152182,6060.4561055407,23831.98206686797,0.2802653001744283,50969.632526637884,29364.029593419036,14153.566314428657,16761.47001062493,45258.190881292525,214.38279202635178,10.798979659378695,21.526230514564016,9272.88042676612,1581.5132315538149,1388.391361587388,1,High Risk (Failure)
113.44799450700307,23394.96800090502,24162.177688677137,0.8761397846840072,26342.108685243173,12208.013010431889,6811.255836790263,56937.256322634814,67438.85492092409,106.28636129615725,8.953973102758308,20.979448061971212,4253.095031161512,1462.7511544903327,818.691781466794,0,Low Risk (No Failure)
123.65851248278835,12969.99128804441,12250.136779178032,0.2606587984474543,23158.161240626065,18757.10443673347,3122.771410959202,67726.74142009852,61148.80060868064,131.54467774504977,8.452953064994364,24.978340716056287,3253.050293656074,1177.5311493453146,594.4503943666175,0,Low Risk (No Failure)
96.1800529999475,24085.987236511184,29393.608178642582,0.4281756874621504,55520.568273659206,12741.98753801341,6371.541312589196,12922.683740652501,41620.238173251826,222.45781744927535,8.196792606248925,21.011089600272857,4846.096319513687,832.1557637860003,1150.2639843263973,1,High Risk (Failure)
80.81290717263151,29438.798367357438,11449.766707651735,0.9671640551360522,30386.683706012882,7788.876974105028,10244.568230544217,10320.19365514276,67925.31530853178,248.5445501424169,8.273619348488891,20.99223282581652,7983.73856722705,1671.1445819244204,903.9413075126494,0,Low Risk (No Failure)
72.81837542154803,11491.281045754411,8244.810567055465,0.6286843334246048,39858.47100906039,7957.472251018036,12730.838086638303,48973.07103948795,16447.3807681981,291.08429252878295,10.388454020389721,20.967976916209015,3357.358399376756,1566.7422737692439,1288.349559287096,1,High Risk (Failure)
86.81907460613083,26590.79454907987,18576.93510306748,0.7957277149698383,47876.61448934777,16078.806836372503,1168.2882624814984,14915.506441764497,52346.81749912143,251.65821657013316,10.71074663606836,20.8727905738648,9187.005905803519,818.9359649622359,641.1912819562925,1,High Risk (Failure)
103.33316020193188,26924.071809429723,14284.447375846008,0.06767353665798337,52493.58619960409,23107.362679783222,4468.787508418218,45305.46098171143,68756.63607669855,126.58574732992474,10.883081046897578,24.732401675353593,3289.9847851308923,645.2259109217863,1095.1157036774507,1,High Risk (Failure)
177.70609827827036,1205.799442351728,25830.67666985813,0.9722213709670056,55849.19960582127,10246.877725943097,12368.055151583085,16699.048400856725,40358.88148914592,252.20192607342048,11.601887043348054,24.04483834744552,6880.024455160126,1441.3266465418226,839.6904882476381,1,High Risk (Failure)
204.40846506873066,29035.292598518135,13361.411454234469,0.15288884564479632,30709.685195231144,21119.380848696244,10299.496974532543,58130.84976922979,12453.620956124883,231.92147927947906,10.579446989678448,19.3817551477668,5595.72876431873,536.9975027321084,1160.945160740756,1,High Risk (Failure)
139.27861059299175,1406.4210082556524,11415.16668485793,0.3313930876965162,18533.004819483474,23676.69335775457,2720.070752149667,39100.50279959635,58850.95878906826,233.82121193222315,9.616299787517784,20.474269198722418,9568.363540026778,1040.26163476191,651.9907635100741,1,High Risk (Failure)
136.88111156125262,18135.12175445832,9163.276523378921,0.7898479084853475,44336.987676408775,16892.50053138731,12734.417410910759,59737.28256952463,65898.94665868767,148.25935582738117,8.9522803027455,23.2304994492139,9177.24143783553,620.5670836011483,521.0152988980693,1,High Risk (Failure)
103.4255008714743,7072.794704548074,25864.268125672323,0.18263897570179843,55714.64106398781,6848.209122165373,14549.907771707509,40476.7738599429,69071.67702064055,270.5458045518257,11.16568702163709,20.82892681902392,5860.275108547545,811.1496007518622,920.9141028180735,1,High Risk (Failure)
129.91934170649932,22086.8047095759,17409.342645361947,0.9096137968829121,53082.481761281364,22266.090328487524,10278.467645476607,62429.46660769065,16528.626230017464,156.71805478771023,11.729487762768798,23.055551202390006,9345.751309685995,1152.8418135358193,962.847162328235,1,High Risk (Failure)
143.6956550672238,9818.744443167232,15663.100421735942,0.18313537157176984,30475.222946356495,5036.257914778179,10561.305597240103,16858.45323306138,49305.561707458626,275.84225415234596,8.43677550001751,22.94990121315023,6647.257998035951,1959.892132018764,1301.6643274207074,1,High Risk (Failure)
159.64054451837455,5968.411789176874,7105.898342231409,0.4995623111402354,17055.408235485895,20348.94131420028,14798.423349212158,15087.773527056226,12712.099838636199,100.19582673538001,9.0058575221849,20.559900798877734,8248.669936759372,1302.2667638042594,1144.8546776087233,0,Low Risk (No Failure)
191.6774088066828,18648.576202045253,10474.28993297688,0.4319334233634766,26370.33953809096,13552.226030016938,9821.431960354183,27707.668588341247,14437.257535669127,240.721148539513,9.663501801935922,19.273141984879913,6905.2937096521555,1713.5457470384697,1473.9831541573467,0,Low Risk (No Failure)
161.2195029014317,4373.620086864576,28867.4074938298,0.44966166311292255,17872.862054509533,23490.2721850192,1288.7052104004365,41447.435059839794,40626.60538173553,195.3758111215293,10.085402479095624,20.19169961550754,8505.033902137813,1776.8796034160039,837.0883422037582,1,High Risk (Failure)
98.4638260629611,21241.723673435983,17323.312685728717,0.9921514352300481,16356.359297513762,16934.10060960508,4332.187766549132,26882.62364275854,26399.172838244715,131.63270968393144,8.86396843259103,22.422647122780972,7207.913004114303,1747.900964913794,1222.7505153695297,1,High Risk (Failure)
211.5597723814174,6773.709178141844,26482.804474698845,0.3407634893488872,45449.6237022743,10824.924701323813,14982.92568048213,68703.0678675234,39477.48535271344,296.902015972954,9.513544624408809,18.311769032590192,4198.727624465563,1847.7795153181887,797.7544464474056,1,High Risk (Failure)
131.00003508873138,1942.1113040147839,18317.500941396193,0.6925773793969057,38326.121983587014,22725.65476750001,10457.548270286135,20719.097905249906,32383.702520621504,108.72930072873712,10.687728964651374,21.1178260083716,7294.540942326895,1906.1351360221724,1254.613656657924,1,High Risk (Failure)
114.46193668072091,7598.482431157437,14950.707550201569,0.6061773057817677,59825.18265868106,24357.282259529005,14615.656326157005,37482.13325978688,13093.058739547465,151.8360097215494,11.766629540283992,19.282417228417035,7843.150706408094,655.6850057459977,1440.2395550995402,1,High Risk (Failure)
94.6783680145241,3258.490683647432,28444.70729775716,0.10564284887024189,59097.31073576007,29529.498829724387,14631.41357491181,19512.022293846374,28059.858861019988,231.4483120272347,8.96700473909502,22.96772566415591,6213.411966708041,1344.4109925918833,528.7609832925488,1,High Risk (Failure)
75.51450735446795,25482.07798751073,6204.181644962306,0.4432573413593345,53985.36461326757,15611.889026767682,11532.61467142156,54691.97796931488,27100.248783445393,252.95104445545405,11.647976605380197,23.956244532145263,4106.255517673711,502.0545066792221,1444.536687818646,0,Low Risk (No Failure)
140.0180403322603,7267.9385570167005,15082.351632267142,0.09851507346853383,23044.132656197897,9745.0989666597,14496.397683355772,56620.84078370918,33196.1561952435,193.7778588965911,9.53435453478891,21.744538956911722,6242.67075229291,1160.5651112111314,733.794302280623,0,Low Risk (No Failure)
149.245346779204,15549.27581418632,32534.076206287507,0.04928020144774492,15708.32750025231,24006.69440809905,7338.385407756277,50684.3668937027,44674.87659113081,101.934872260566,8.51387442098207,18.0698544704106,4762.12958890514,1648.7342940090005,635.814099408013,1,High Risk (Failure)
123.51704273188534,4914.376096077621,16155.80345999283,0.2155011558337655,58593.18700026359,27172.007128026016,2665.178575953713,43424.549775057305,31635.821989154512,218.03686407899397,8.893700754624495,20.42124042388743,5892.709354694964,1076.6237225393943,739.456085531082,1,High Risk (Failure)
187.78492485706184,28678.98315073667,24625.049359757966,0.7551685922953277,15928.198440619395,25436.09466092291,1299.0842833574736,51109.78732845402,42391.03378782072,242.7194518849963,8.606918550668178,18.183916829611217,7070.531352125105,1621.4045665337278,1127.5274409500921,0,Low Risk (No Failure)
125.66126768570075,11637.151298741783,12836.005138217388,0.06994401013863127,54705.642532788916,6979.175011884052,1339.541104605571,69786.78504088827,31938.2698544654,125.5189787302561,9.267001901726804,21.653651538483285,6112.020262654161,1218.8085012104943,913.978124826072,1,High Risk (Failure)
138.6551274786299,20241.22000873259,16305.06683048497,0.08745015650275367,27339.342227711015,10601.310300808751,3388.001744886691,53050.18226583368,60174.8117799988,143.1054621808785,9.339963453862827,21.93052917452935,8063.105381638817,1653.2246636384614,1174.894247656956,1,High Risk (Failure)
198.88907041719204,8144.099170026754,11989.166362341173,0.9991495667786588,45089.839041525935,28904.614186912633,7960.842037421515,23945.804447752955,54280.36877208082,103.62796677860418,9.910004829063729,18.95437417100519,9823.902923348893,1478.100973092328,1418.4440464019854,1,High Risk (Failure)
174.58410787571097,27859.596606024174,32036.720689333677,0.3163220570094807,22924.341612035656,23827.08649183014,3748.6231358818472,13685.454671616537,26735.42468181573,110.17128474573543,9.732467112377421,19.948240961998145,4473.812649099328,1907.157529150455,753.6767105463116,1,High Risk (Failure)
80.48733423324359,27928.11045392994,29080.274375788606,0.11121657500221538,53716.52556023693,7269.494008867143,12360.23294129488,53733.44635193249,60847.018766003406,275.5674926321391,10.119268755768342,19.1084233265724,9340.114753798693,1766.7979043434643,1197.8713209118528,1,High Risk (Failure)
180.84326727948928,12907.362219909732,8005.0797871198965,0.9765873392003843,59278.81011820682,11649.50978483483,3715.526120769977,12111.709019509872,26604.11768642501,109.66976630243599,8.619708136536701,18.093553268700443,8352.05392319586,1267.6985907974713,608.6405479796581,1,High Risk (Failure)
167.07504478797867,27627.601595389388,16715.470930531817,0.31930032032675715,55691.983881864086,17364.582451141745,10602.04660061149,18006.61176537977,47097.0268177269,136.69520979528465,11.143782625901306,20.895679714822354,7324.331570962408,1396.294539257436,1320.5472041487556,0,Low Risk (No Failure)
216.98845388196713,7773.832592448416,25220.785373783983,0.3185630981259896,50663.89765079117,25830.335454270084,12092.800765401074,40139.51829565433,39051.296564269884,247.85490063103265,10.673927164301746,22.580101270387956,3888.82269093387,1083.715081232079,1204.574872426067,1,High Risk (Failure)
188.9922047668898,16966.54840169956,9035.764768675535,0.9999248268331765,34681.33782832998,16580.91839343353,1285.7883095918107,64323.83884389494,38758.83628803138,161.81134320603783,8.113190181387584,24.77156240533032,6218.7955041177065,1158.241821502174,538.7732827593815,1,High Risk (Failure)
78.99345528145784,3545.4145095797767,27248.26501830015,0.9891020145393196,22088.729649908237,19849.544724808125,12511.218676522954,31705.111404008025,36063.77176440488,115.01758244091094,11.126109339633272,23.43023473556096,5238.904538541005,1343.8589800263157,1381.4058126196596,0,Low Risk (No Failure)
201.10844132874303,10410.692825899472,25107.910604827754,0.4100896832611529,37530.46836624644,28393.138709469964,9649.318479495512,64325.74082350836,49322.57657585432,121.32020897793763,8.471544936596947,21.147670081351862,5698.058815171929,1283.9684313575453,1299.4884004190876,1,High Risk (Failure)
218.61246425027528,27523.87718094055,11991.502955738466,0.6794473358165979,39963.58367243665,13161.138128520817,6275.408057813795,14934.492597324075,44808.58511967464,275.6234321369709,9.861141012386904,20.982395463431217,7937.883600040543,1554.439641161618,1106.4448042607994,1,High Risk (Failure)
212.12363323701408,2633.6650561779543,17356.924350863337,0.48851363999575304,29130.66196101757,25803.694683592814,10097.508867549544,23258.170146612138,53322.764390898104,226.7590396059265,11.64881853355556,24.11802187752454,4875.065176101726,1106.389407792377,1090.4131585780901,1,High Risk (Failure)
205.47523293784963,15041.350451355307,11331.149906258463,0.9044637585523287,29652.65282073581,17680.25260072312,6319.096659331343,54820.40811770682,57779.13738223994,290.8794716533985,10.259578915578071,20.042114694128202,4263.444328520611,1641.3827322692744,1182.2386436483093,1,High Risk (Failure)
117.08053227097429,10508.635826529497,11898.842462031025,0.23974417293825845,49786.435441757276,11734.119438713722,1848.356805426321,39460.11821276571,54945.018480157974,120.97630865635642,8.345406645282242,20.799156509212914,6086.770306988754,979.6540400636545,1474.3927950026582,1,High Risk (Failure)
176.1529086192383,22417.83554851194,26523.033526347608,0.8181097847441675,39013.10644769779,5605.558460453426,8301.389739761195,47023.07486726508,18716.034875627673,177.83379497144176,8.135496599532747,21.298993467601054,5536.87122646197,1569.0207665035127,1001.9721381862785,1,High Risk (Failure)
200.4758912712111,24423.368702277654,9334.27089783816,0.3107616953724214,42208.11474910142,8124.215453795837,13071.169888353777,44865.66647132521,41159.58952147923,129.4931315941888,8.362521012557545,20.778363853150083,9644.019954255215,1344.0136084910748,1070.8337663416273,1,High Risk (Failure)
143.0451648207278,20665.552544562746,23452.20020055532,0.60059670357945,55294.57953402477,8107.708747636576,6486.560323819719,23297.419557612455,26670.0990290977,133.60988006350473,9.301768388184136,19.42749329673205,5357.574497233012,1019.6033769020038,957.2683222446335,1,High Risk (Failure)
168.82252348164806,2824.316804522694,17469.830045013474,0.29751350511377783,45649.92743899168,9170.043509270876,4804.908451930411,39425.35238648871,65558.89811249104,217.00312155019225,8.462113679369196,21.410376210963996,7630.547564962764,1475.6174170950562,890.8742466319775,1,High Risk (Failure)
68.61288398535345,20950.92236344256,18011.81187938049,0.6963612669164726,42444.47072886476,27514.714196744702,8384.557460894917,12026.330418536389,43395.712768642756,142.38252919601652,11.17887682262083,21.683255402773447,6981.567170022079,1120.7623608427398,1110.9485367467514,0,Low Risk (No Failure)
160.54823305833395,18733.350728856774,33763.59931821224,0.08967825665938012,39863.390116514005,22411.031777684246,2963.5271811569696,39926.7548793711,14917.835531925652,103.8800059043205,11.64128175389527,22.196761877282107,4273.675697056777,801.6953562137278,592.8679740087489,0,Low Risk (No Failure)
151.3245287470259,19222.066408933886,21944.549418805913,0.37637062729826765,22564.80875427602,9163.096573272163,2735.0551771551054,28628.67738677136,35257.59010354231,213.30659311908659,8.883649819419182,21.403294038320254,9039.796770059575,749.6575444084373,619.0973149320924,1,High Risk (Failure)
117.9830238586613,12917.334018153188,31697.931676702938,0.49547156306533335,30480.616872203515,16193.322242034017,12978.9127387297,16427.88892405237,36631.82166922305,202.45539434492605,10.58577549021896,21.16673952221657,5456.476053902086,1353.1698743856346,1237.888191841617,1,High Risk (Failure)
148.99051082080186,10135.239980503447,22660.751610902138,0.943499229703927,17624.997252816076,26896.6220645282,14899.985314498219,53706.23234107955,53267.135954800004,181.48590513328253,8.788027382437473,18.41816533065812,7394.1578326563895,1647.783027096894,645.1267778763927,0,Low Risk (No Failure)
211.37847394138123,18064.505973150117,16058.61957494866,0.3417576022985628,37993.96120315004,28902.379078133712,2846.675505576226,57649.65855824393,20464.2279787569,132.72865069946886,8.871153618086856,23.171547817625893,9723.000770239618,733.9651832993019,1491.1577402258038,1,High Risk (Failure)
196.4075873993553,10260.189520619848,6390.598083028386,0.8219173805887617,22791.155607322464,9174.318151179734,2659.419219767969,44761.23430238779,10121.48025893462,219.71700611991417,10.182045779144163,24.839295655637766,8968.165340642587,1488.7170362742643,631.0021315001619,0,Low Risk (No Failure)
104.853560408226,21174.65223324483,9142.509698060272,0.08809285071188666,29186.305936188226,21536.801390124005,13695.656467999377,52702.22767272122,16972.03763023174,235.20931698091573,8.09817593433544,23.53894539333261,7501.686918065342,1485.9677889530615,1040.8113472319515,0,Low Risk (No Failure)
116.70799180688877,11956.107893372933,21760.443318117013,0.5747092028675753,32957.304840201934,17981.16694087216,6203.743999012656,18842.252905374262,51164.25184650858,200.6117580765163,10.293886879806921,18.487822186237395,7043.204661501056,1286.148777714624,1063.3428415424441,0,Low Risk (No Failure)
172.40648024556913,1692.6415482551402,27392.576985323147,0.8226534590503691,20334.342163904174,26549.765329447026,13564.809323275376,35518.89208306883,30724.9458697217,134.97300444253477,9.084653683565163,18.584683920996685,3734.5268509500265,1887.8882741051202,1246.1442279361431,1,High Risk (Failure)
189.5480058025423,6287.720323768367,34607.10999305767,0.22434718637176454,50537.929349400525,20154.19253337739,7223.529290894998,60672.860953227435,44103.36201919271,243.45225484340955,9.862846395391642,18.247885583336387,9234.741294491683,1201.86347798197,1361.7029528901157,0,Low Risk (No Failure)
132.1982950689581,19484.73375557432,21436.124319116592,0.37397025927733263,35085.031157428704,5721.906731643409,13563.55340842112,56593.49708056195,26284.962541354274,296.4737532465933,10.942641560546342,24.611999904587833,9401.590205110035,818.7976555410733,792.5678022346879,1,High Risk (Failure)
146.9684577782382,29418.707973390075,31032.42170245192,0.060610357117813485,23382.023204080222,24972.82919464633,2530.832902389041,40106.015247040224,21222.930810225087,166.3766475840689,9.910211350340845,23.012190355310636,3210.9714511166735,994.7389385124675,775.9226861437271,1,High Risk (Failure)
104.29244755760826,28405.495733206328,27534.45103467748,0.3493270359759112,17821.303749887284,14095.832696003587,11376.993335869114,21582.083506751023,24352.95913053469,262.59964772151295,8.994275348648301,24.998024060973382,7915.998634564665,1505.7477190986574,845.8946369398,1,High Risk (Failure)
76.30289613966988,6540.504192551803,6635.6767663483915,0.9508410342291114,46699.43192914179,10551.892498598238,8734.022337600425,68646.89381597086,46476.57226089653,144.20219780437841,11.879305245565325,24.72860807276502,6410.902929196984,661.2816539298653,690.4631367119824,0,Low Risk (No Failure)
199.4458889843802,5519.69455999186,12955.426253909685,0.537356404772887,23564.455042020792,26363.309239644663,12005.207208568298,11624.111060753921,35651.645641774616,243.2241780373196,9.883354374907867,21.248442693291718,8070.934302716801,1053.3333479897801,990.8382885334217,1,High Risk (Failure)
76.54945837767734,11298.821156745773,24800.078137237982,0.2894696886725362,47073.87398371631,8837.213928243944,13893.407336577598,42032.90349278442,60622.799632195136,257.0584971400905,9.910939416043776,22.25387901224279,8488.348459432262,1294.6795347236225,1201.2490668976693,0,Low Risk (No Failure)
79.29070172436461,7777.023015935544,26849.46531481204,0.41781880610625366,15666.154026830885,7246.761767233498,9877.3955973612,65984.79421542515,66101.89945797139,288.648372747793,10.548958136136974,24.22220879099353,7019.2159437040855,517.7596247462893,1339.167403545615,1,High Risk (Failure)
66.29496650696154,12181.02254325841,32766.329775866703,0.9670159887989729,15874.470258382406,7423.211261023312,7260.440015681985,17911.228105399856,32961.983326122165,223.19173914955368,11.442672475489205,21.528220476052375,4469.728899507268,671.0895125473008,952.279228464968,1,High Risk (Failure)
82.8150630531054,16560.767510829988,31138.187228521838,0.7836735930196038,22351.38098554097,28534.53124942573,12054.624976037972,26580.640443732846,43599.57455688454,261.3825763609789,9.426633222341712,21.335719499461334,3309.0891294114545,1355.431553387523,1323.1487753294177,1,High Risk (Failure)
169.92308264051883,13772.602549025336,32439.953222712484,0.5556347572049698,29728.21396068992,22820.2689278941,3372.464643281699,32818.9222748586,37832.63900621918,134.9583752345912,9.68806482145829,24.978038704466975,9662.342207716032,882.477169993637,906.1548457187484,1,High Risk (Failure)
191.60556710147148,6568.471278070516,31444.00294638668,0.2712215203841182,37365.13376296425,29865.287852290254,8044.214148570194,41664.33339651408,30736.43803823446,280.7782688178863,11.933020425519995,19.608642623149887,9770.018751901443,622.2887843454163,798.2882370961904,1,High Risk (Failure)
127.63658190302917,21518.16175036324,10312.127657478193,0.8492586264996466,36535.14217861587,12133.462379366782,11153.701933991517,63157.347277663874,31694.029237068215,276.9585375498926,10.961766344183248,21.15532961165894,8502.3630900348,1529.6378081761636,1489.8706831638451,0,Low Risk (No Failure)
119.54672381400214,27527.73053310215,5368.719834670127,0.9062673972898302,33759.14025139968,10763.469804272834,6533.556118783777,64533.085012065196,65170.38245055312,195.3138438938019,8.203329096693757,24.50869772086831,9067.58134534701,923.1808635431204,773.0844756913712,1,High Risk (Failure)
177.9894029954377,9801.613365290614,5169.563145235542,0.042590953970313095,20472.545173074046,21270.131063170847,8455.420546898742,16358.691883313528,15776.232575126774,252.01150709706306,8.7620548916034,21.7196483693342,6082.141764091295,1364.3735364510608,1408.2708970170565,1,High Risk (Failure)
198.57022232006534,21520.996986475526,18274.739410041122,0.7244604232514118,44344.875323217144,22547.483596724338,1708.1015923343246,49768.39939359598,36815.27751021035,142.2886538501349,10.795906315600956,20.421605397919887,3931.0914700456315,704.0348080817746,881.0902117787788,1,High Risk (Failure)
165.08481675588706,18938.969323091347,21985.579529521256,0.2564805263681059,55973.220446940286,8082.850306883614,11351.680790055514,13016.131070476786,61209.614310804915,242.07979303858443,11.14215166538488,23.828450183015825,3032.9781326374455,1111.8727244265708,559.2624866992477,1,High Risk (Failure)
60.80985341539499,26216.476482634414,5853.721755317674,0.1339986812056707,41912.06201101605,21871.740147591492,3438.8284710047965,55499.92521006602,69440.5586695485,174.20064104285058,10.64437919721985,18.573517718385258,8948.866768367272,1700.909456682355,1321.2446859075976,1,High Risk (Failure)
158.14582227371324,23026.08431279138,32147.885509454456,0.5719826853440126,59732.51805456511,6364.756926279914,14540.439000125916,22681.82478721893,45483.71465191184,157.00020401721105,10.585973941104847,18.52456965365427,9229.006100601928,1501.730612900193,691.3760367674788,1,High Risk (Failure)
107.72359267745964,24776.176278283143,8306.987261636981,0.9232393837281877,26701.0517915236,19579.686389264003,3101.711713077257,63252.333098371586,12851.99618980975,197.44481135173226,11.697838134236846,21.763170480516308,3267.953327782363,990.251194140614,1239.906166137688,0,Low Risk (No Failure)
129.4433556334014,2375.053448062463,28227.81705297354,0.04172479285350328,21890.108890758005,23362.919356844235,14602.696795625388,23473.09609856139,65129.997530360735,252.4327635815596,11.043861632905518,20.894179102904516,9740.036762116255,667.0836394031999,844.847773249016,0,Low Risk (No Failure)
124.57616037785459,21446.835241955996,30188.73487584682,0.06110295648660358,52887.23837891186,22844.76126229028,11222.254067806363,42196.619397802104,15930.549500115563,243.38151902380164,11.99859813736213,24.3242998863214,4392.952563952521,1280.4721511960015,1092.0611351587254,0,Low Risk (No Failure)
78.01447464467111,5637.484105699698,28751.986789989587,0.5976821280278075,42316.45072183933,25757.391240073495,1014.379940550991,15047.590241403897,61583.64075944406,222.1697013346898,11.492808877362217,19.321668561813375,3298.1437863932833,1811.1695597083944,1308.215036262046,0,Low Risk (No Failure)
65.07900245967818,7715.906747380983,12119.424826842547,0.7739607998232102,48135.56382101971,19223.749269084146,6271.521069803174,49960.70747657118,50303.23170000525,250.54955985626955,9.49791190528541,21.25398589386354,8805.118247963488,755.2159723135682,851.8481987737481,0,Low Risk (No Failure)
130.30479835111237,4513.508376568578,31602.031758377132,0.8246314679891132,35925.09058620118,28014.017552508743,13522.336663528877,58933.91294463693,56978.99787742813,208.1575747726665,11.258673332829462,24.979955627990666,5062.828954444325,1993.1263324292586,887.4865704491845,1,High Risk (Failure)
135.82739521857644,29074.102584380675,21963.30498696028,0.5051579186281667,50384.271511466795,21044.657442620122,5607.305726679669,27543.958817432544,12091.064207021736,258.5731128954893,9.049127867446977,21.498237313249724,9342.11966418838,1764.9125150151356,978.6261881556773,0,Low Risk (No Failure)
162.9261149507765,7590.570553230207,31632.60528241959,0.04924440140828912,28674.940558686983,21662.41852260754,3505.6679580117625,65342.834910330326,16271.208021623695,181.7341153588885,10.057640653996495,24.968640354351578,9090.111873504833,745.9232805591286,1413.0518325239902,1,High Risk (Failure)
111.71246912332083,11932.598851318407,5434.119245085951,0.11033477382520296,18365.467402628932,8587.991603556406,4816.589861270615,51199.44316205001,63588.90178093326,106.09958761685641,8.793702668286812,24.90457719867304,9976.687262804257,577.2838349515821,559.3334701165217,1,High Risk (Failure)
153.32038277000908,1337.7020855897904,6049.4562054846065,0.19134476270187262,24459.05465036341,27893.81931703915,9731.200655960767,33261.561516682494,37659.83131541678,233.17864157498198,10.212242936022411,20.580718508593385,5933.695967271726,625.520490033561,859.4217768972031,0,Low Risk (No Failure)
167.6746595831092,4507.859204916278,32352.629960044313,0.2686677846278276,53559.95793924106,5831.008124665253,14005.42809021659,24442.049422780303,63004.71281479656,228.03195951646666,11.748735978090934,24.97720516423634,9708.194033866803,1004.7988177420959,882.8489316096086,1,High Risk (Failure)
79.8153642729308,23761.606518246033,33963.7453531941,0.9465083782919413,37856.99702274282,23560.356632064842,3370.0478060458513,51340.55327528876,68112.96290032234,219.9014686140843,8.005818738035519,19.347483209242135,9649.635876700628,1875.8334960757327,1469.4104442769908,0,Low Risk (No Failure)
74.73071777319606,8456.436615962142,13646.527488676009,0.8920255690299734,39645.85753631148,8066.248913123607,7007.926273373908,67034.58717393133,21313.54613201964,132.17907121083113,11.7109266501839,21.967347228954797,9929.643591008644,564.7524430886839,1423.6777419812995,0,Low Risk (No Failure)
142.02683615302664,8966.445951407166,15335.05565427385,0.06207013670851114,36996.26584807239,28847.027402454696,13837.214490373131,44889.15649979021,55780.01490724234,236.32740594028135,10.856266972636352,19.546713306311442,7172.850118849013,675.314998944381,1272.5647014054084,1,High Risk (Failure)
98.94346931496487,29290.29254160615,23220.691504332313,0.5245189426558096,20443.099278953556,22234.51670841251,12881.170458186318,10035.685482559444,40204.75125305717,155.13264181200097,11.874754816278607,22.763224714532235,7322.046089698972,504.9625066804592,1377.0801479959655,0,Low Risk (No Failure)
207.3356556505099,21883.228671933426,15832.989218794004,0.6905066320111359,23331.59437827532,5151.067421451673,2563.9719494338597,32667.651094614324,69633.02167462723,204.19199232074362,8.819593227399528,23.380085092783517,6253.9297025431315,652.0729990760925,1428.4951938053966,1,High Risk (Failure)
68.98817237559024,11913.04269169493,14563.950852516537,0.6821831661527781,50591.292012515805,25847.031506509422,8894.68315180837,45130.165459869204,52803.930805950884,101.09828017391045,10.012279685067863,20.017911093691048,5394.513264036983,1097.1088328309752,826.7233407722048,0,Low Risk (No Failure)
176.73698853409024,23293.666809512873,26485.216308692918,0.8074987316566608,24400.096540953222,26494.491374262416,11456.10595588353,67686.15855400685,32397.289820569516,131.3630643653227,11.445957564932778,22.132808584795953,4176.631256617361,942.944867929373,519.2377914458871,1,High Risk (Failure)
99.94703243843682,1591.6467099579838,18617.98885228971,0.9595534142998999,30726.733975080635,25050.818276659207,6424.720077319806,11819.87635682961,54960.790848640856,192.74007885457402,9.210584052789532,18.577280433230754,6063.9719400155645,639.5282138869547,1425.8259870632598,0,Low Risk (No Failure)
94.38602192582334,25070.947825214167,32035.67365863805,0.2676481623668492,31415.271601661156,28587.639594700875,3877.4448068876263,14501.36560437256,57667.55282951776,180.71192317861977,11.54236934912813,23.241142850074056,5677.582788906845,1385.3806976913936,717.5656644581045,0,Low Risk (No Failure)
74.25990913856266,8762.38467863463,13086.850797573785,0.49835189131046054,24859.26702150519,7722.700836262207,1185.2349909718637,22326.036098844696,43352.072060723716,270.4550638983384,11.498184459113265,22.78885250394317,9721.911265986233,647.6787271099627,566.939855153609,1,High Risk (Failure)
153.694029419618,28317.751959632278,33762.29890725312,0.7459169379985563,54349.74533223348,28954.60389938921,1632.7460622859053,31164.22039861208,24938.85902864115,251.80309734849337,10.76191676867035,23.93264592229175,9126.574605397218,1039.946209029391,1149.2528116952997,0,Low Risk (No Failure)
104.45644417435396,24037.142527692835,6270.857958583461,0.8095792609149848,18383.126325631165,22437.201414948937,14095.88622192934,44531.89097221839,42751.32606259828,281.39284586999213,8.920311224078635,24.911414602385033,3739.5736942355807,639.1147783836192,1434.2391205368413,0,Low Risk (No Failure)
93.49589173387365,27422.49454036677,13722.315976720218,0.8425883794336675,54784.6810326695,18657.847437618715,3118.4304654246375,64960.22565674023,22793.86997665235,217.08612306054215,10.439114907028863,23.991784449709094,7366.74263749581,1225.5884604819903,1421.4727020489827,1,High Risk (Failure)
82.52847182282818,9735.707549023338,10596.915789039791,0.8451056409802619,42524.129973191935,25595.662795332257,6709.242183352755,53363.38902453618,33599.62291193682,214.08307624162242,10.702234963092621,21.824108052895614,8067.60622227821,1217.7964637484424,1307.786867079894,1,High Risk (Failure)
204.6789266252104,17075.355344426003,10858.00805573162,0.8811700884741743,51912.343225938595,6953.276073476395,14268.417932954504,20430.838774685937,12198.773429147737,240.08457348452646,9.07652877554269,23.675004218941616,3109.488214613679,1108.9279123043916,1369.4068664751817,0,Low Risk (No Failure)
109.0842559235426,19464.09451638031,27182.53740997597,0.8234535644704001,27961.980440318275,22434.06725903663,7335.9053412772855,46761.9368211379,45048.11873658759,192.39335300887225,9.192930110181306,20.240128204803472,5969.777947380011,1762.3023608506644,1138.688390824455,0,Low Risk (No Failure)
95.93849789501631,29072.64298932642,10179.722032927693,0.8553476686836227,36986.15152387703,24519.069068710076,5405.728086246778,51426.14167269321,56082.98345615239,203.7180568061504,11.825822401876495,22.036251449454724,7518.095180872457,1900.532629783023,1139.0318780852126,1,High Risk (Failure)
64.0561189464732,27880.31930223006,33603.07474273506,0.1622808243140237,27552.088888695944,22645.67238205275,1974.5096721242298,30097.64183831285,42490.44318042659,117.65943393333906,11.224696641766021,22.26536112136767,5901.077488302066,580.0111561459947,1037.762682446109,1,High Risk (Failure)
87.82323987511796,6177.073888905363,8122.278692547408,0.32831227354246373,21079.255046788938,8330.74268192106,14000.010735540469,40151.68373865027,27304.382994964068,182.2424002925609,11.668103036069562,18.75891001489358,9289.76332033382,1724.3590499510021,1355.3175446092102,1,High Risk (Failure)
131.73104885910755,1654.4889128689356,9730.66016219442,0.0752576013082058,59230.73547868604,13470.260505766935,10277.779525552005,67716.20088354168,39338.08553744486,213.48283263820665,10.112662268975265,18.15632608616372,6872.113230923206,1720.4260397593196,1127.8000329317556,1,High Risk (Failure)
163.59595426473646,25514.569294973073,16269.462064790025,0.48078141794911333,23939.728582709315,21140.992994074455,12401.363507071126,66430.5388299759,41326.08753682424,264.04154530927246,8.610351011781823,19.998640525456295,8705.740348013442,1549.3467980409027,1473.6122659883044,1,High Risk (Failure)
179.59110505547102,16296.237447930233,11533.973453492647,0.48017344185958954,36031.14272522314,9870.5915611233,4311.255091826089,48621.894219058435,15149.856100660181,221.80833598896174,8.954580046119826,18.14366394398209,9500.475217828292,989.672098177424,665.1639635058875,1,High Risk (Failure)
79.88755575768715,3697.5048686175746,5334.637619354915,0.36169081130025293,51208.0098693182,12790.235382478448,14310.753039925588,68892.52450944114,40245.007367169164,239.7666106319623,9.036425839493182,24.362846221842858,3958.6634310165377,1985.8475043376654,1341.4326002055263,1,High Risk (Failure)
134.9857027190602,12336.605378393706,16109.605263515667,0.021806793124395596,39468.25302737679,27412.112342029293,8274.204741539732,45173.97934915431,14112.676691605331,206.046000994428,8.560178872513537,24.30838432296189,7713.739524809876,1493.111629634338,1124.0038205401302,1,High Risk (Failure)
124.72438169181915,18914.080797792034,21201.971458525153,0.8892900220719556,34514.066612941344,23681.72470458585,4630.4531818656105,20476.951000443783,35315.37098069377,151.59480536342272,8.434506370501605,23.161196562378727,3980.30671852081,1756.0713694251695,1000.797070490547,0,Low Risk (No Failure)
142.05995876884285,14940.707638046322,21008.072045762834,0.40178524516275893,32299.48938431176,28453.98901516148,1186.3371612290107,47804.43578177392,45557.48412316751,242.29963174269832,11.073778169540056,18.890392511739716,8589.290766065176,746.9334539011777,1163.1055002136873,0,Low Risk (No Failure)
132.13429942466115,19260.824262516886,28291.741059581782,0.8858827375717444,36504.73475843955,19818.199480996518,10955.776901657218,23092.711661160414,62875.61957609395,190.66088885376777,8.74295389550191,23.378775693529594,7802.99622042403,1368.3723482855353,771.1327070255668,1,High Risk (Failure)
176.55850834585812,19382.794393140815,27743.876194905348,0.2846299119393191,20045.36625732145,21607.540006498213,14072.649573029785,20096.3538075477,55662.00188340414,284.13122704208695,8.460862770483565,20.633511577668937,5813.844275198406,624.1760113073428,819.6854108297005,1,High Risk (Failure)
113.95305209052033,12972.342535008287,11344.109601492397,0.8310534408973382,18318.48743135223,10369.750968481356,5780.595854370402,43867.84166291004,27991.806984377017,117.60740566883541,11.915136262797576,20.98219497587849,6717.846304183784,1176.6519795535846,763.9071329705939,0,Low Risk (No Failure)
183.1188693107099,5251.822157635426,28960.621127910876,0.23198498498368836,52359.01487954152,6274.419086716899,1259.1032479056184,45825.432172748755,13150.54332913411,227.71087019372857,10.4928113638702,23.89042677926942,3949.3087958843225,1901.198589295581,581.1359929206118,1,High Risk (Failure)
80.29184360806701,1687.7744488679277,28937.941025339467,0.04511099552039388,26336.64166604891,21155.588195616983,10068.557196253045,65245.87117797624,11813.470723928283,253.5567618412911,11.339728895847443,22.91286316202784,9082.394133600206,526.3716691912863,653.1814005031435,0,Low Risk (No Failure)
192.6213385412175,9058.842653644924,12616.520328832044,0.4824754444178325,21865.583702970143,10332.172948723273,12246.495778332328,52032.793533892305,41461.255565221654,229.01366138636487,10.830330052280766,24.696786051518075,3293.12441156688,1710.51589443238,860.4293095120822,1,High Risk (Failure)
124.03396413594751,2107.880728964341,6434.331911074393,0.06800028364757738,15944.099767527,20149.020187269867,1977.6180816321603,33485.10832662237,38303.64239207204,167.99620893762656,9.060066647716505,18.139681330527413,5221.81663327103,1627.7657477106975,552.8381601154229,0,Low Risk (No Failure)
149.79564612520397,12449.411203469426,15731.502948272826,0.5231560631441117,43592.980086560055,10335.653349210275,12029.796067478683,66272.03317910963,63926.74331501401,218.4462670182151,10.973389931230038,21.1595798762154,7749.596888394073,1747.8119300271887,948.0774894323233,1,High Risk (Failure)
209.4200028044648,15648.351116576185,20907.425790987283,0.34498284569587834,39426.49030416492,25028.46770746912,2210.388411333133,36400.12767254507,13255.381928894585,292.4031953973588,9.70459391839959,24.09536219327988,6139.335489443789,1941.5630439239071,1232.754195670559,1,High Risk (Failure)
137.43829890875955,26141.29024208486,10929.43343358846,0.05566614605619913,45745.59953121755,21919.3987947841,5379.60763487809,35424.051830909215,60253.24450257992,266.94194189653484,8.138517650225959,22.61204681755027,5058.562501792816,1539.7221040757113,1285.1955883038147,0,Low Risk (No Failure)
140.0575113944897,19642.168333656402,5576.951103702805,0.2253624253203238,46401.89293888396,7150.454689092013,2541.634412408608,44340.95094629584,16385.72636289367,159.2528806897352,8.235405140006947,22.099139082622884,6478.120063479974,1099.5814032249505,1142.4322734098623,0,Low Risk (No Failure)
145.01674105090368,1304.8835117079511,29618.821802571103,0.4788328158316816,28198.259394397,16521.755130845355,3483.1347924095962,56498.680608179246,50738.37472034238,202.3160519480219,11.790636039435842,18.63212980082071,7590.309772344809,1550.6175251149418,925.3554274890066,1,High Risk (Failure)
66.31352526254389,19872.861304560152,9100.852234671089,0.01912635062373036,58450.06885938197,21521.643960043657,3146.482500837028,32746.11436998928,60018.27259388261,206.62716239611288,10.484621963901702,20.925621002418755,8930.569481122082,1649.8296413229739,1366.4581277476757,1,High Risk (Failure)
100.74250476220222,20040.318369589917,24865.576571355006,0.5890601535252913,38898.06089200634,15435.384883161125,8777.243963033703,67190.36902145491,26698.999624707696,281.09444286978834,11.332939902861643,22.264146637741128,5861.413254922218,1300.646639089703,1239.239973431368,1,High Risk (Failure)
167.60116202778386,12828.662878660409,14455.618704618915,0.27178050119119723,43780.82429994365,27427.448280160137,9228.761001554352,10095.449590946422,12756.028423347092,177.49809770955682,10.573392584181658,24.00972131237779,5549.3065439493985,1397.0583244952863,696.0263620458976,0,Low Risk (No Failure)
187.80531772378646,12431.52434339733,29068.664490910625,0.7575269941328445,35990.1190391501,9549.890533852733,4990.045249224859,31844.228251895944,46572.289188276955,140.51201358688851,10.439898370064178,19.43706800334781,7483.514419166369,1628.3726855238033,685.1420257456908,1,High Risk (Failure)
81.05082962036157,17882.19928162752,26870.40263878906,0.39028910083933377,30166.875981966525,25671.970506490674,14485.896439006205,63800.658951123434,24761.05107241445,151.5183698787415,9.523615396680004,20.025021546861538,9746.90546408847,1119.3538222797647,754.2207898081385,1,High Risk (Failure)
195.0739720457829,18594.867813684727,20472.085651221347,0.013980791839511841,28994.761590537913,17892.699180865937,12640.65793091164,46810.86208666752,18478.642779901737,234.2519475131167,10.34757104912937,23.958243440129202,8452.841439044616,1449.7918555846506,679.997963248268,0,Low Risk (No Failure)
91.19603198404627,13522.34792279145,30890.80844448871,0.4320427135264764,37959.594106393975,9665.155441550762,1349.5943477555534,62134.530634088645,42855.088633789936,163.36006872976233,11.953400894741868,21.692067189996532,6335.903369213874,1801.6902117191178,1145.7731545733473,0,Low Risk (No Failure)
144.79049390883728,4129.812093984822,16965.09844519267,0.38669149463878805,25409.391040718197,8219.46888693658,11597.02606455147,32092.500451242846,45940.904927973024,100.6574886224427,9.369225263432405,19.4427317438604,5421.780141674151,931.6228072559429,1454.43041581739,0,Low Risk (No Failure)
196.91143489700573,18000.829464642087,7756.882762313187,0.5002645074774619,45224.949741166274,12132.984032200933,11669.964963826553,47511.1131256721,67429.41534208042,178.94582765431764,10.465992419745401,24.825840992608804,5263.364665858098,603.5285438830169,529.3154721531121,1,High Risk (Failure)
212.22453475306511,10689.034910510334,10408.703918469218,0.15978556211357042,40226.91318185005,24796.167321703997,13599.28423933285,55441.94323753247,30529.393228601584,236.83406955784636,11.136095131333947,24.92567737591133,4720.4306634085015,1312.7674847551566,881.1590204199495,1,High Risk (Failure)
128.23995955869776,19393.049638348737,23345.94783844322,0.481705479844009,34632.117601916514,24011.418488504896,2402.0879363745953,40968.1261638953,49051.697626821864,129.93331940287428,8.270000206429152,24.038184018690863,4274.645017401328,1576.7838893317657,640.3210943067168,0,Low Risk (No Failure)
111.92188802805474,13972.640373319446,9927.909911618719,0.9416948315016594,25658.73192481615,17696.121330603964,2087.9847726774888,65725.43727329417,66509.23942974245,257.7693798263232,9.061026113800732,20.44030160218277,5897.903057200232,1187.1392781130648,1151.6716409854394,0,Low Risk (No Failure)
105.40414492779591,20609.676644339637,17963.515268476833,0.3952924979506717,21237.067414419078,29861.93944269057,6761.074694507089,32819.10052914504,18106.3904259369,249.87613200527022,11.22170395623646,18.63064107703209,7035.93562670285,502.27913316647397,1085.5000615955987,1,High Risk (Failure)
151.539674195553,29677.395651988758,29790.776305250125,0.9251548183905436,21624.01026720701,28456.133836769965,3580.646496599307,16707.865109227496,35478.376540320096,178.64671135680751,8.754293795815245,19.993096024324288,5564.934033670414,1802.716003245508,611.8021913675561,0,Low Risk (No Failure)
195.8713042504511,3114.055104277995,31307.56795612541,0.06113763001222361,18364.103102480116,21512.298158030968,4467.882431870612,61199.396970276284,52204.72423168576,266.7650175859917,10.201015776000828,23.222895933119105,4994.379356025896,1292.0845683965208,788.4618938246913,1,High Risk (Failure)
160.94748643666614,12354.575888447247,17596.087726109203,0.34947449595816926,54772.99368829543,13637.688675312047,2273.247356123974,60889.923608769655,48283.62288481293,156.92946289229454,9.148985435740121,18.453818579176943,9975.836505801464,1481.3182989093757,1234.8023260393868,1,High Risk (Failure)
210.16476535570087,12417.855919938089,15742.559056801345,0.41143623742666235,18899.583242737706,8815.532696255757,8396.0702438554,66743.30529539933,39560.43713616948,209.35409539155958,11.054489855413056,22.37996037629886,7827.016722814332,1944.475828401322,503.05110292332756,0,Low Risk (No Failure)
117.66829234263778,14113.30524144313,9224.355862789984,0.9838390085407746,56008.86734231569,22333.871247477724,1692.768820049212,49071.27547303273,57603.28407918679,152.9731964898637,9.605303840501664,21.677998121996932,4886.278031769539,508.1204861787991,655.1571054452851,0,Low Risk (No Failure)
150.92937653367545,14754.951281184478,26752.880566929525,0.938883315070567,53805.372538374424,28638.589054399235,9018.421404226025,39186.007515273624,54579.23528845739,291.3124248515318,8.88322655430268,18.73380072684842,4380.813070588214,1227.0014982359037,632.2592939437138,1,High Risk (Failure)
131.75128351653115,12202.34344922081,29770.143379384343,0.7529485996631107,24372.851372890516,10246.395012113486,2864.5264778680794,56050.554825809006,56876.425269606945,157.36636222636653,9.603664896902954,19.710470249394113,5430.215352832909,778.071217775233,1093.582642924228,1,High Risk (Failure)
98.64589467226908,11426.7511910801,17355.90396159355,0.7339267236324865,34463.083863594606,19713.549644135182,5895.174767515676,66648.663086117,13904.63245328785,239.40183542386734,10.021163494261272,22.844733409677687,6538.447523855495,1866.1228435480557,606.2424031461443,0,Low Risk (No Failure)
193.7788325131598,16099.005258289235,26365.63945938477,0.6850451757086196,20947.028878694524,20995.994140244307,12965.973526545624,14966.11201131333,67635.95448118236,171.28736668139527,9.784014416608597,19.18038091128063,7182.237537156147,1644.5568557911124,907.5885046872165,0,Low Risk (No Failure)
205.03553775432752,29582.42128463121,18532.28215474579,0.09566358641884165,33148.944959681015,29328.83232863132,12813.748056086759,22293.19615368521,22781.929485815468,247.95042219768504,10.594633561978513,23.388091125513284,7447.218445347797,1804.662528253811,1222.524499788136,1,High Risk (Failure)
141.3376875066048,6542.0630580432035,17800.219418474142,0.43261493287204567,50566.57011892894,20059.17598370699,2501.5273955285957,23725.38606930113,39275.56867942329,236.5171108564671,9.933340812122774,21.90777089407291,7928.740318102443,808.9389291208114,738.1397419186488,1,High Risk (Failure)
114.79167661355413,4371.936728493539,14251.837758954382,0.4231728395267549,48747.979549683514,9918.513060808998,12266.631580267625,14464.456089411906,59608.338789632486,196.5310383626907,11.898707160478118,20.07460987030715,8000.5909104620605,795.1925701356117,826.5297313036697,1,High Risk (Failure)
162.77208414483638,21244.045845698645,18976.139260891054,0.06322433925063364,36739.54914422595,11619.067825818413,10779.385881571778,49447.51491338061,19088.486093009582,114.37783313317406,11.22295980637673,18.6489657783354,4997.164130613913,1806.9999914264056,1203.1051406315948,1,High Risk (Failure)
161.98878423971306,26905.83031985556,34937.45403236863,0.38185762522183253,16805.79550852151,10492.761567876292,5406.195365541411,65728.45452369892,51298.89983778617,141.89620832188376,8.805663696766667,24.391946477752864,9701.058502232903,1673.8070043574482,1488.830531872069,1,High Risk (Failure)
76.86422038343396,2378.014959006201,9376.677394498618,0.4764457362938286,37500.331169214696,18034.94219756696,5968.65874886406,33320.47993961636,39637.20839502994,103.51298921598855,11.426617104486088,19.94439910816245,4369.28941605329,726.8008442301925,599.4532361042685,0,Low Risk (No Failure)
91.31402241594385,14076.205939701296,19149.58403985166,0.46426690242611335,47588.011581320396,21509.20974093468,2044.3574306637554,27206.137633931554,19664.039854768285,112.77105227851176,8.446467257472388,20.193928009620286,4019.242901675377,1302.23202615846,762.967382590111,0,Low Risk (No Failure)
152.272383817241,28748.23435874883,5217.572840454334,0.009561712850478243,22531.778319306122,7490.544523741486,13036.737260325513,60206.225816555954,36996.18718621622,100.06220250576017,11.951710739408242,22.061022116559563,5584.844947344942,1297.2546242964565,1015.0781092037207,0,Low Risk (No Failure)
213.24636815811263,24494.062631618377,10179.696074971967,0.47961375416408336,24945.13015460915,9074.502406230535,11606.807853386552,38092.185794368736,15115.045168417295,102.3543625512624,10.742743757107627,18.903072426199795,5701.942456661478,1622.2046941453666,1384.924682240663,1,High Risk (Failure)
125.43247110628317,9082.135161927246,19336.31231368192,0.02163932494516374,50175.65435818289,8173.563289723575,4597.881892609328,53977.52682311179,46302.16723931191,254.8942525084986,8.709568625774445,21.846770067038744,7122.298885362145,1577.0201453294023,1027.5883103536512,1,High Risk (Failure)
85.16371330875445,7076.057505063432,25787.274547042427,0.7605322021044364,53065.57503467008,25255.986572481692,6926.7595886963045,50067.4248939412,31457.931604857073,115.14928045427337,8.739874376499056,19.665500648453868,5153.91177754897,1426.5645225498374,541.5948052460938,1,High Risk (Failure)
199.6368400775363,23366.049146962163,19036.097409017948,0.09949941425661568,57879.942579818686,13662.47223800799,9429.392797746346,33768.8522826906,31995.072128541848,201.24135752433605,9.092650350780712,23.59135643652872,3368.7806647333023,1535.9139054107127,1293.6029809357133,1,High Risk (Failure)
112.5172969085343,14639.397390178985,5641.665400252394,0.18630691817427392,18940.776776980354,16658.061599053173,9646.81749067162,67469.52309567695,32255.883886246156,268.28113093665286,9.020636247312183,24.373015259909344,9634.284482365409,1336.1787941693556,559.5476750512538,0,Low Risk (No Failure)
66.45613229755196,12018.838615532824,30210.845161559562,0.6180324841811372,44038.766805792235,25213.81990568553,14081.693052616989,48593.860159658,37646.00333318509,225.63320060780262,11.764781109518212,22.175302738539898,4717.319348143927,707.2696976873643,1323.2219546624808,0,Low Risk (No Failure)
182.53738302155872,4884.295362600011,17568.22526240383,0.5152954376314456,55355.01525911555,7665.919085720425,11777.248621748344,13585.059489810828,52918.28807490728,252.91845008916772,8.959389019010395,19.7833466352385,5567.145168596506,1519.2238390877956,944.5260301772762,0,Low Risk (No Failure)
150.37458132201863,1579.2150447628155,29422.007178538006,0.023995945800073026,54698.99003778614,27863.7019775289,9503.156904839858,66899.27919992238,55900.74175773391,179.46429279145,11.365523922839522,22.781112703729484,6305.586822093994,658.9608893490068,542.9793699239497,1,High Risk (Failure)
210.2508317620634,16534.980143224864,24638.644873911653,0.6247394599064581,40104.43421409827,19315.570579747877,14240.770139501758,53397.52743054676,69642.4871509691,145.20857155858482,11.702724028100343,24.389269657126544,6300.461902607816,1661.6353773068627,575.9257030645887,1,High Risk (Failure)
190.8823625475989,16845.80515215183,19791.053646206143,0.640347346297737,46288.86486420888,28021.539129538593,11723.882955687137,53113.738779089574,17663.996915617237,105.88101543609054,9.39835024596686,19.235740437820333,7041.580620895613,926.8908641128046,652.9285997213457,1,High Risk (Failure)
129.17356816681632,6521.0718026140075,27945.436796599504,0.3248866064812187,53299.65506843155,21577.550876129226,13664.447229244211,47441.08126932939,23418.79508941553,107.97299191760628,11.543577324263165,18.81691960570675,3533.094532678642,662.2615956619447,953.3124514941862,1,High Risk (Failure)
99.94688141746975,19178.15422803695,25281.680150397595,0.5220484161712585,16938.789727058895,5002.755795045561,13645.760322922777,36557.57319647937,55734.35673766066,122.95087268054394,10.719790503434185,18.608518706127192,5628.07245195762,1552.4055781954023,549.02967421813,1,High Risk (Failure)
162.69112268822965,4201.432793248079,11742.807129764584,0.3679849069377079,39027.96286790659,23595.619259628307,12931.701975954868,27722.312575539683,59826.214981695,214.21252573626333,8.61008451219138,19.193543434984274,7779.173494249435,1020.0936870269387,753.9405893195756,0,Low Risk (No Failure)
89.02966961436758,4752.037892034326,28696.043221392287,0.264930886222406,39645.070553055586,26194.855575700414,9179.890913007319,39627.5006560639,11035.390332806084,140.59447553681167,10.821479209262845,18.911856519074046,4819.242536825859,1288.244860282558,1367.1273830352561,1,High Risk (Failure)
188.71914278909156,25875.200902800825,31627.66972156575,0.6949266964401023,39997.20734092465,11211.615117571098,9187.032321311777,11192.483861356044,58739.36679052273,149.22557633185966,11.415740845744441,23.425354341625333,8108.9998016038035,991.1498568927202,519.0594537173706,0,Low Risk (No Failure)
64.67956528552946,25246.288123063146,25163.15201041294,0.19785464967766442,16513.972014469295,18067.15977915653,8841.30084745292,22523.169827575795,14430.0978469333,294.54995229657095,10.010463064754765,22.909346359228817,7648.244940276516,1314.1118328118093,791.1521922269835,1,High Risk (Failure)
101.6378556776367,24274.26169639721,18027.100898341872,0.9247395651994635,27223.85088348783,8559.361639815408,9268.369114666762,18188.288237509045,61283.638365709056,120.94369423373294,9.032336725246333,20.58644644121331,7135.6887187737375,1071.580589667355,732.1622198700055,0,Low Risk (No Failure)
97.95628667775912,17783.937814439978,18331.81456747309,0.3786906633330023,28950.00050451953,12421.696275819213,12666.129601285693,42612.21774653329,27184.50562400037,207.14737649306625,8.454506979157593,20.488563698340837,7877.626568639379,1530.3524934557965,1191.5653096511528,1,High Risk (Failure)
122.68974313874747,2045.0839474764362,8167.481387132841,0.9709921485238141,43884.940971681564,25446.510100201263,13722.690862554673,31886.081909077348,33970.544664216155,123.88362132019768,9.321632055449625,20.837118846416796,6361.406257947509,994.5495022566231,1329.6474176043125,0,Low Risk (No Failure)
69.65633343849021,1849.6838499991327,33412.62640926667,0.5944983657497586,30520.715774734606,26121.20515671547,1946.768586927415,39202.208555575824,40001.52115376173,204.8501167171149,8.052792329524891,18.894402807653723,9709.928597496702,1010.271826651778,942.1802555022493,1,High Risk (Failure)
180.1503677381309,8123.315647415621,17616.130702066293,0.7005069956788803,21589.194374200502,17108.157562337663,10662.39049645944,17397.388705301684,21142.03877112263,198.27776319949055,11.308109196646825,22.168929130706964,7110.507567614126,1213.75511489885,1423.5492330653954,0,Low Risk (No Failure)
215.18630365033653,19745.81388161458,31206.788068178383,0.3639388834040429,20960.55558900953,10168.382641039345,10897.048417232529,60939.52271427501,50008.94050094167,110.8396457764535,9.105019086688273,20.109021765418632,7549.409266138293,1700.072589775555,703.7099686849319,1,High Risk (Failure)
154.07866071421324,13784.79826837296,9534.858745646796,0.5123153112566621,26243.922422371506,24968.84057041818,13524.766645781228,29912.466584845606,43342.13894171629,257.45105750815935,9.782695426899293,20.560552645678364,5812.294694037582,1747.9153092957706,810.3893187937138,0,Low Risk (No Failure)
75.02411452630695,1610.0701713535905,21350.252471718217,0.25481762364438143,18106.548755894994,7293.797195646144,9115.447589647687,10924.329615284318,15924.420311977297,281.7035189811869,8.423242631713507,19.012850859830653,3680.3735549738535,1829.3698560658297,808.2809800502456,1,High Risk (Failure)
190.74050272249363,7371.95975320151,32626.584734905853,0.18676841627000884,19429.34410452031,12611.847540392877,5437.919170202416,18849.658845195816,20855.96367008446,192.01041582575567,10.3918378244473,18.60667416065014,9752.003726937019,1037.55866402534,538.6618118156074,1,High Risk (Failure)
127.20176068730606,14007.733931685323,31601.791494349676,0.38401502972718426,50910.69834170035,15626.658253776524,13232.445377719145,15015.924197918008,31344.370830189142,229.28658979293579,8.660928862672424,21.15937310049604,4138.819577862394,1584.7274089816,759.9660564467251,0,Low Risk (No Failure)
184.0808474750399,17064.31028178449,28681.389003857734,0.09601101211365137,23779.76125527724,19422.647588621745,11902.676516857975,57730.01149804897,38775.729391334804,134.7070804296579,11.257935027629017,20.03121277057531,8389.133000152318,1653.217612333112,1334.3524047891458,0,Low Risk (No Failure)
93.72689624800458,25539.62211847683,13095.00359873283,0.3429026435508816,55515.29837434327,17901.529304659045,13502.084893786643,20396.09178255938,32760.829403577358,272.5837849222461,8.154148860100904,23.128010040250583,3501.710919987288,1657.439726732979,1104.6759919641988,0,Low Risk (No Failure)
141.9782044073265,11294.858358604313,8577.505030443997,0.4242372452952734,20603.19609751292,5646.509588464927,7710.84079908676,41682.073574278846,15364.645043867089,197.50584269378044,11.974002629419191,23.038283035102776,4338.730743711394,585.1699614534369,1045.636308817007,1,High Risk (Failure)
78.76931023398312,10786.834325676184,31911.155487520537,0.0968921611641681,20722.97391863448,29223.712293833036,10435.991977385143,44760.842371073246,33155.07865576136,224.85489011318745,9.776190715457224,21.009704097460478,4738.4679903546385,1064.089592464336,741.1882909981578,1,High Risk (Failure)
165.52095706421233,5761.363957634403,6079.694866060036,0.4942359264076128,25950.9533963227,13847.033783848263,11273.967549555191,21375.82476964536,41963.63576874943,146.84939046574522,8.158606794646063,19.703669452063366,5323.809999248755,1878.5638341866795,1023.4407512585518,0,Low Risk (No Failure)
205.34952830070006,13325.070009572728,19269.529533549103,0.8034235690981628,35381.97917580538,26704.40131785721,6482.692564044631,17027.6758445386,30117.793941020023,280.1135054598635,9.051720770876347,24.900800297474877,4894.932811768465,1075.839235454313,1366.9730680740731,0,Low Risk (No Failure)
104.68417415270567,29758.898071389332,6139.935119142265,0.42553429772119955,30333.27100699558,28748.124274361828,13200.705187791576,50969.750226384516,12991.385876994415,160.5659121760239,9.450678323523114,20.670489667685978,6944.302339115175,754.1654324572553,1353.5130987928965,1,High Risk (Failure)
198.7670721535684,28439.419925746573,30628.03077972592,0.8874074739689635,27199.272438594737,18454.964458045644,2499.033896014688,25976.532395588,57316.63766531941,119.08518412851535,10.888121390551554,21.397762431087063,8940.646750364896,822.2600631998246,775.954842354258,1,High Risk (Failure)
80.99918042918202,5836.832720326551,19231.17919923857,0.3901132134339331,57346.543670529514,25436.150058132534,11020.980245913217,43068.7715534158,23155.682632919095,160.9738672538619,9.977200739687326,20.10161919863993,4726.598324117749,797.7633741388909,1259.6397455130505,1,High Risk (Failure)
214.5011252919295,5821.404580141319,24777.336111526158,0.6090816550210135,18302.02753846992,24890.22312048683,14802.53729290458,58387.1540617241,44692.94088238227,133.04931339967504,11.481113573187184,21.450014002384503,7719.302607177958,1762.2499828347982,1488.6936206898731,1,High Risk (Failure)
203.68868631051419,26049.899065985093,28807.735916069705,0.9041636839560749,58625.635506931845,24157.203439745634,1107.4473338242797,68459.42497489353,28296.70188588182,226.40847241085316,8.278544654021752,20.17219944406903,5828.055652576147,1797.9807214908835,953.4954735959159,1,High Risk (Failure)
71.10781483937494,16175.301229707244,16326.362689866715,0.21513022642467916,17207.24497214495,25733.3647908039,13283.614410779222,54217.936365609654,39428.08466026143,225.76112035868496,10.978985053536782,22.113250419144492,3988.1024646168494,1650.588037280313,1490.3097892776932,1,High Risk (Failure)
155.77007891484158,11084.397231220151,18695.352701653705,0.09124239411372093,17970.285111525056,23921.993812016997,7433.817680880234,41825.03149666693,20680.510568235914,228.7863363786377,10.415807143731218,22.556395264191348,9244.04581822981,1009.686317678557,1208.274594219335,0,Low Risk (No Failure)
158.5381101091687,23007.17589812054,26390.8460686729,0.6393387635014058,49199.2516184438,20813.736115463893,11506.863408594472,41335.10354443627,57053.88860815078,128.98035034156982,10.923353891195658,23.501807863114713,4760.519809770891,631.7796164333697,630.2888257802658,1,High Risk (Failure)
74.62751869074211,3200.277595497379,8103.054999462869,0.9992994759634984,28754.88326666058,27009.110238114317,10653.956430346463,50020.47341526495,26588.097770404696,195.39830851008506,10.407511157179247,24.871585582367167,6947.841184842376,1512.9240779497964,738.7137399191718,0,Low Risk (No Failure)
66.89601743173185,21597.056915890516,22382.16893259964,0.8590383695462995,43142.92093461536,11678.47113733651,3734.1963029342446,14255.650706413802,20946.61743061106,138.70647830808377,9.956394527585607,18.00440825273961,6296.557852284204,687.6427595112546,1314.6571979027817,0,Low Risk (No Failure)
157.57004184769872,24543.989295144936,7785.784188305637,0.6902333334145232,21496.405149135346,16635.610343546934,13743.46325342957,51571.952172117344,55919.80436758208,139.17291190036275,9.688422305125076,18.866535323131476,5197.761450246371,819.3405455341634,665.3035989667923,0,Low Risk (No Failure)
76.12448022038826,12150.95859748173,15950.759121164692,0.18680084104503558,20020.60465731722,19488.110847847776,12776.173311666294,49011.882756595405,40092.82443661693,103.1350456951795,9.408779119298586,19.912426774988067,3051.11400891467,1060.663492948674,1057.9611305943047,1,High Risk (Failure)
198.3454274973024,12543.590379689193,11575.530369569951,0.33487629347953374,55208.433956506844,6585.533114508267,8340.973390018533,16511.344213605822,49131.804535352385,296.6110478714984,11.375736645436529,22.936770538087625,7889.886620677643,1586.973655049368,625.0231041160384,0,Low Risk (No Failure)
147.20430702351013,3253.6601333600393,33153.86159374006,0.43140570366978537,56691.204205184615,5006.132262799827,5567.656736538927,12814.159125877564,19289.224567086043,238.24106602681096,9.371786245936129,18.214567884808776,6899.472048073637,1553.9956395947745,724.138315635023,1,High Risk (Failure)
174.62353791329582,22836.59959813637,18088.680778810827,0.8544293867817304,22196.806735935264,14967.362286242345,12412.906789539353,68839.38235779158,40922.26688680138,247.9629248095869,10.197726383384815,18.161728613363717,8384.177056292989,1876.366070253811,650.2823956017078,0,Low Risk (No Failure)
119.08492323448657,28025.46924532622,31534.139407265826,0.4281348447110944,30125.82399126392,17421.5963936185,10991.739230523346,31996.190026753302,29299.51799916742,192.69292772385603,8.4031542912743,20.984211588927867,8001.6473040991405,520.1275387494142,867.0879563702457,1,High Risk (Failure)
145.09948264080265,3206.8996804424546,29491.931790847117,0.4562958831277989,36091.05302531134,25046.310209765088,11516.062923700383,68377.72001761384,11097.723593154973,169.3588438208339,9.496452525765164,22.573919897829494,9052.685252114125,775.8514572961897,1417.3577974695067,0,Low Risk (No Failure)
86.37037051670994,6209.885320704915,5625.357194231025,0.29708865318724076,20213.34172356154,6914.523284190345,7747.540234681287,28764.21872967561,14430.790198179515,262.66474919762004,9.394663342413907,19.30997916493965,6434.464596363525,1989.9949852602222,1121.836490916805,1,High Risk (Failure)
77.60830792442829,15083.39465398687,26555.93954366738,0.6095203113099242,40007.529110620126,26842.81712264722,2046.952271769941,26524.382803584762,52002.72847477054,268.08281028099253,9.257824603453349,19.16813846403521,6154.900429628393,1440.0052772437894,665.4582735772167,1,High Risk (Failure)
212.13816996006565,24155.151646484526,6968.839860072211,0.8600167529095454,28597.656901125338,24296.578275012773,3287.258035329442,59137.63017661727,55699.199077108155,155.7240295155221,8.869535360102603,24.435068727902895,3787.5602352973137,1820.5127848571271,961.4547224711894,1,High Risk (Failure)
198.9236008653409,19878.18061133779,16491.970282573362,0.7517170414784834,39848.35826267916,27574.463228238823,2169.331870251255,11382.73623364266,33946.63608338557,168.2259451304783,9.405639999936515,22.17237226224549,4957.895585246237,1829.071560560976,743.8530895676798,1,High Risk (Failure)
122.31710318438726,27005.649947324593,33646.69130027774,0.48158905510787775,55506.963815144496,13373.288823990693,5013.216463095548,43869.14417728866,28720.990183028814,117.89747025191366,9.351210141180871,19.377928762834294,5836.062880731537,575.6960471691293,1221.530861664715,1,High Risk (Failure)
128.59232335782937,17260.139959894725,16264.91723964863,0.3583229285893832,26097.304365610602,6863.824371301309,4584.878855968417,11554.013692616576,45270.094158354244,229.62530328561962,9.84151266019776,19.31515463991055,4556.837757787521,1826.538971775531,1418.0617328862675,1,High Risk (Failure)
65.3102967299882,23622.436688313977,21499.652475978586,0.4615289585400517,30317.40194588177,6470.234697817046,10010.235868786389,67532.69914710746,46835.477679008814,251.58884042121304,8.696438809861576,24.376672318058517,6694.614358444011,1769.147562203592,791.4627778920882,1,High Risk (Failure)
172.65276289587575,10887.897235646667,8535.803260393104,0.5272247516003958,21286.958579212125,24500.752689833433,6867.007413670743,25028.00426892747,52288.88345388774,220.61494082084872,11.945833978887768,23.426165663991068,4515.000871112906,1751.2060557166699,708.449687749218,1,High Risk (Failure)
89.05563468822811,1490.4711977266124,26673.002690672394,0.6459341848009382,46000.18986146012,5409.194101002069,9669.405085358905,27522.924748003486,45667.4742763984,107.41761565224463,9.539070626923767,20.673714237961846,4826.249772519635,1569.7232333304455,1061.60536920683,1,High Risk (Failure)
108.22045986626273,17515.4204970387,28314.83588616785,0.7126612256467458,41949.14897520786,27436.532014249475,12415.769618848295,46148.17431684313,20001.27209167556,196.22153448786293,11.590218020437337,23.47761419847709,7623.458340445772,1729.5685690959917,887.2302979047713,1,High Risk (Failure)
203.5835709314538,25872.023659012993,24526.504553716084,0.8770386290433045,29736.91539929089,28806.88625866458,7081.650009666473,55242.03454744962,21605.100282307525,224.48904020074562,10.08154181219136,24.76298513129593,5720.071571606469,1391.5947962469036,930.0491471055968,0,Low Risk (No Failure)
69.92662671304869,1344.2690534114195,33069.65388228634,0.5891398158777236,25396.177912993182,21620.897659218368,10368.284661563963,31184.630706590844,47862.1223550803,181.51504232683212,10.927768030800275,21.255708478129815,7791.727921520836,913.0365427851414,1301.2535188291242,0,Low Risk (No Failure)
183.9414049020461,29007.342872644327,28697.36005108536,0.12068846784624043,17864.311665058234,6240.858850914458,11129.15902641739,49943.50083494701,63382.26710731073,149.51931271459793,10.507568566530848,23.86199253110118,7860.111675275358,727.4081250612486,1153.42178373784,1,High Risk (Failure)
173.1162379929146,10757.060202707795,30987.008685767672,0.42168164685289433,41474.624750810086,11909.520527656714,8454.798160863782,30118.338105004404,41009.51320144117,213.71972722129271,8.343049052670215,22.478941224777586,4958.702619961909,1963.7782535703766,821.7193607678319,1,High Risk (Failure)
61.82687735265178,22966.60247096999,6054.82139865916,0.18299771660209885,27430.229110437303,14819.074523689442,13916.417411148703,48165.10866833403,18595.34140537237,298.295880299882,11.235699600093596,21.881127745079702,9350.696201265879,627.1649486082115,756.0615861493638,1,High Risk (Failure)
208.33770061734836,2515.7913592862997,16870.09742288948,0.9835983288781539,43051.68420994037,20418.189794663682,2735.820892769142,23370.68120715745,41846.425657686006,107.19146712542067,9.381564657982729,23.198516419612222,7927.367978642692,829.4153240029674,1453.6449213713659,0,Low Risk (No Failure)
128.2237370882596,23968.090657775683,27053.47474521188,0.16110990518583312,42958.36653975551,25673.009143088093,9306.960562581522,62429.38097579499,65123.09032689153,249.93880319431142,11.603926814484257,23.223593164790554,6398.7939863787515,1753.0369680458318,994.0564937980847,0,Low Risk (No Failure)
80.61917879575122,9734.092022923405,14742.51826901606,0.6016700217635939,18507.753124391344,13939.09696749012,10053.003804656299,61933.80356719301,27356.515790222245,170.02795079571817,11.808728242391597,23.048192974126614,7696.026592964428,1901.5070462513884,806.0264243263589,1,High Risk (Failure)
146.8839334332261,10690.147649132003,23162.011158600326,0.3671157673405353,44164.976450593735,14153.740930264268,4999.452635621615,27712.971741570083,17799.801137691968,163.17525617839422,9.021736381259204,24.627430619282862,8086.664783937611,1809.2557985303183,1361.8636788196723,1,High Risk (Failure)
173.25361555676298,1589.891374583152,34497.243094171965,0.914188424133511,22327.446562325826,14844.010009489082,13727.6138529021,16550.004752683406,65420.37951935784,147.13103189287395,9.28057858911595,20.83937608124032,5959.929064605447,1428.2445294911267,680.1530800586318,1,High Risk (Failure)
139.73884363831675,24095.330955971556,20200.736030188964,0.8025483033945796,24391.518726381422,14911.703018793341,12852.954844813654,65719.33868399922,22310.92375253794,232.3254827369251,9.484803612216323,19.101395513950518,9772.305337466754,1649.740678439453,731.7191086639043,1,High Risk (Failure)
62.29044442672959,15505.740130160772,14402.16684423669,0.9062657925730495,42485.2921412042,13994.773852310076,14908.103319062346,59585.15684369538,43125.87921924385,122.87250499834643,11.839470421637355,23.956585299739174,4918.674160678735,1971.0609871806255,556.1347341733338,1,High Risk (Failure)
68.09169661187661,19669.347634936094,5276.17002171929,0.2773399179389394,42231.51534503821,20073.401689388447,2258.0803862887446,64415.5488802344,41036.66217755951,139.3296507533536,11.528551118766192,20.022585099654204,8013.150888899066,817.094203930772,1369.4088117004403,0,Low Risk (No Failure)
216.3692652786406,4102.746574064076,29748.407883816726,0.4586284874314659,39352.82235621475,12864.176658158423,3771.7702522938116,10384.085311437819,38787.66451104803,130.67604351557523,10.662159194940424,21.812851496899775,9595.205941831478,1147.6176165359748,952.2371845391193,1,High Risk (Failure)
153.49028990769602,21094.68664751887,6483.423100380418,0.7223043293295386,52671.63440963028,10349.40839097662,7615.574756547651,26469.78660719182,64102.55791616363,125.65869849416103,11.89047391518804,20.79208221418269,9442.204184805221,1444.8422382797912,730.4184341680007,1,High Risk (Failure)
210.72931511817526,10077.735286345858,26501.408288057803,0.6164589351662961,53189.93903042308,19071.546682033473,8070.672280157319,52082.49392908817,64777.94255115074,175.84530158063637,9.74710860078136,21.535187600910582,6728.926050444367,1379.403580643541,1438.9449307002758,0,Low Risk (No Failure)
210.12877095175722,27744.476226490944,26423.645822069167,0.2129259504826012,31682.11036405698,18500.34965648203,6481.688766621344,28964.0673978472,61593.981822003196,252.35045320720343,8.489587814165715,19.71168230064071,5799.340770381175,812.5260021779216,1306.5321591132667,1,High Risk (Failure)
67.9966445855486,14209.549161357387,25401.830849205096,0.07798283298998332,29784.080246829268,21222.459949926895,7497.836629167185,15045.379107201676,62615.5299638532,263.68407599458925,11.124922604011264,24.28688844054402,6831.398702344707,779.9586596547283,973.3125809791176,1,High Risk (Failure)
83.25227078728065,26413.105127549756,14137.398412617471,0.2866368528482607,15691.903082002365,8255.698658963407,2467.916300715442,32936.761823668465,49293.948291015644,120.25323405644795,9.757813610953123,21.844150609589143,6582.072934989722,726.6432790688779,838.8386606575361,0,Low Risk (No Failure)
170.7032316308309,7344.37954391551,14936.414438693642,0.5355083889644977,17130.67821359562,5181.824536964789,5031.291174856919,62323.21922984953,47655.14597983911,204.74156878295082,8.351732689378677,20.55638522725279,5852.593348385049,1474.6118943687775,1233.7848609943546,1,High Risk (Failure)
168.66601093113005,15714.428721503857,17153.7822001058,0.01858033405509918,49809.48831311163,26082.77235653103,6249.633706082676,29919.808889597327,50570.74566790575,175.6256301069337,10.513865347433335,19.534641418904066,7695.718812771929,1374.913626974556,1327.0436708341833,0,Low Risk (No Failure)
103.5127295037118,8093.871947515715,5864.041117080005,0.24030574951593908,30738.28158797926,27410.80721272814,9834.657285946541,23806.237292628313,49265.83668280578,151.2335972267753,9.546802047379842,24.500238085158323,6319.900492494585,594.1314957057978,1353.2075221602474,0,Low Risk (No Failure)
107.27116439638723,7831.412103240536,22091.138961062297,0.332075242181336,19366.610032946628,21420.720303408758,9760.448846726362,33950.60213186199,67484.1433202863,210.3351067253667,9.100016754910648,19.19390346538243,6022.122157467517,1263.8574530279825,682.2177952690029,1,High Risk (Failure)
98.52861057170772,21848.30139353892,28722.443557324284,0.09831146023723747,41772.29725472974,24675.89605488191,9562.992673703613,56117.45379329787,65997.04849306053,282.79709804346805,10.995802593553798,23.584196148516714,9218.936791138498,1357.6465015601702,860.2986632197108,0,Low Risk (No Failure)
125.35289302535722,17768.6637989159,22892.30079753939,0.6822871217636975,35263.4381809686,21515.18329527444,4277.758972860111,61782.189594655065,49422.7034661172,134.62801982817385,9.609673501906045,24.899918497212234,5140.961920650169,923.9653301021281,1272.039815310813,0,Low Risk (No Failure)
148.10614071053624,2870.229733219542,31276.57164100854,0.9760951791114886,58749.659292582146,16019.441313659816,6199.716632076901,11799.43826561199,34857.781815633825,206.74719485795086,9.826023945374892,21.0601049258106,9330.144525306383,981.4679364991093,959.647099262969,0,Low Risk (No Failure)
138.85113352525195,5767.38784552401,28717.763859512386,0.884170658510886,25763.390202236114,13328.059106083094,1605.402349709715,60472.71021436086,59796.112202725315,261.19440443571403,8.4056745269634,20.59026131593054,4606.617217179079,1428.075707832799,813.5452625417249,0,Low Risk (No Failure)
118.12085626812964,20178.805301250166,15351.526079661706,0.8229503200222161,58691.043166324416,25664.184611214077,10663.210949126556,50047.53709021781,29534.353964063048,270.4413350307656,11.130169885697288,19.695834675704592,7891.013451847254,575.4086557532842,985.3802920843679,0,Low Risk (No Failure)
199.30704546008283,26007.712576752216,6213.164936379841,0.21213007087061098,58425.00942645236,22564.676413799618,1604.8042119805013,29990.814579467857,42815.487458936295,233.0479898307158,8.06205096413793,23.670568373898227,8923.9477815881,636.1692003183599,690.3034355064383,0,Low Risk (No Failure)
219.29102407851005,6796.316264833866,31288.899214744546,0.3712349344741195,56982.64234003247,14969.13467074641,7755.4758536223935,45078.82354692801,38749.04699703807,289.70037721936103,8.467421822997128,21.776329561688286,5059.16998233182,548.5431006698115,842.9076177075069,0,Low Risk (No Failure)
200.81265400983332,26216.69389691733,32106.779110918458,0.34618530771363887,46508.402445536936,23155.642617347272,10326.752505100936,16474.11516889464,23212.960560655025,239.44825978822104,11.20812395009293,18.67146638983333,9487.936339196267,1281.2663894096513,509.42714824359314,1,High Risk (Failure)
131.056569105059,1924.6590610491712,25188.51200739106,0.2364039589531146,32390.17685044552,18875.061809409875,3276.865552484437,64297.461544856305,55274.98705050739,262.34447456693766,8.777308050172543,23.053386078940648,5266.277887884084,978.941167356892,602.6673677446289,0,Low Risk (No Failure)
196.63086114269646,25019.933379663664,19573.52343065697,0.9957482270595296,41616.59487334837,10378.924152768886,6286.082876430425,67828.77963041005,27613.172652135774,219.8474500995552,8.133447324246188,20.510418451190173,7583.844234723741,1826.1548719095995,1093.0771429299543,0,Low Risk (No Failure)
99.9931114236194,29878.26866561764,10614.350943866786,0.2084862067427895,23011.328832241365,8193.578187725407,7734.814746735166,33151.01255224213,54936.66728783471,209.24092070702017,8.167953400380423,18.29267315277814,5741.851909311895,1076.5649573375074,945.5214022818274,0,Low Risk (No Failure)
215.69228766596774,13879.277150086786,29934.042962110878,0.22885827582349705,41464.60999429662,9972.794780203629,8939.892435634965,40790.60011563734,57624.91280226688,136.09397240226627,10.122134364050325,19.741229462174694,7541.621527771911,1634.8344402274406,746.7601977496336,0,Low Risk (No Failure)
191.61608970554533,2141.4945147721555,14497.8904523794,0.6976348228326642,38327.918585458596,24480.482084307478,3339.9370648955874,52748.24424105815,38612.77689736117,101.7845610163129,11.489669145567117,18.514370889095144,5655.608683920653,661.2087310746651,855.9327135665942,1,High Risk (Failure)
101.7677641975757,15375.79329226999,7540.0944282586825,0.921755245026893,19393.2707823836,7345.722529177119,7756.542388310905,47831.442596717905,15861.860256259348,106.64641233898968,10.687858592702575,22.961913678394687,7861.952918837067,710.479808407028,908.7677246141217,0,Low Risk (No Failure)
197.03837459013155,29867.223874838226,25676.89209088856,0.48864389709875844,30759.680855917926,27234.702310580797,10223.800599517024,21661.508166965716,28180.987408664583,201.17120535488516,8.67531461112142,21.205434088186863,5277.550408515099,1158.0501669920172,625.6656464221129,1,High Risk (Failure)
140.5467633367771,14022.095050728889,27449.564033674724,0.6809779292117637,52335.85702003655,24485.58410368932,6951.045306682276,40113.446365308315,21779.487047633425,154.2804051821236,11.470302040472685,19.535255905842167,3033.656435309426,1530.997474303623,1370.320210643537,1,High Risk (Failure)
116.76340669375747,15190.35967677852,24857.53190473779,0.25669854646456525,44527.90339348876,28031.86791122232,5773.940118578995,49322.98893222363,44180.32800873869,137.878296574299,11.082358032650799,22.63536750031545,9089.167190643013,1792.9374611365427,1195.8868193993208,1,High Risk (Failure)
208.53097001403606,17880.033802602484,34009.550540841126,0.18923760254524824,25920.210764931202,11059.4114912314,13344.153369791882,32571.776317704353,36063.83495087306,191.4758189112389,10.094385705076467,22.460954675511005,5809.53371056859,1896.7704648566366,848.7880017969158,1,High Risk (Failure)
148.53939035996348,6547.385544198916,5143.994744521122,0.8906403862806171,43698.5549810573,14743.685366841522,10058.75676868371,68121.21786776916,61899.03183290476,225.52340036698158,8.813567870948747,23.730597307512117,6069.460740489949,643.5281725369168,1118.531880960104,0,Low Risk (No Failure)
172.58975639372733,28436.19292399611,7258.167230108116,0.030727179650499536,26381.156752399445,10410.92426580847,12728.812423465683,24615.63736343277,13286.300752252673,216.97152044104718,9.586692648167338,23.874902676784096,6168.633217292969,803.2132403357778,1357.415776183465,1,High Risk (Failure)
121.52181242317,28953.564350122466,7330.172398185157,0.8563533488135087,39536.79572610858,22059.94547232073,9424.775665205354,17615.619965223494,45784.038229771664,234.1141697452219,9.393071510778839,18.48681277547434,4692.82700534464,1065.0947902187336,895.4658097964357,1,High Risk (Failure)
214.2446155464822,2112.5519793153326,25406.40112801004,0.32564649218745323,49267.82893544357,29455.13009499792,5027.02840902923,67349.47999699824,11775.83639272782,207.77183555354546,11.6564435175037,23.880567632792754,3617.0242203636735,1866.3417267021089,1399.5171362273077,1,High Risk (Failure)
131.42712262425314,18075.497834530473,20818.973993863816,0.9656889165603693,54399.654260944386,26075.879115962252,8120.525266913325,26905.95210983565,54526.68151683295,108.37526991849515,10.467108271971888,24.487658657731785,3256.5042246157755,545.2618858111911,1069.8924908844701,1,High Risk (Failure)
66.42221745365865,7622.312811186582,29676.08056740415,0.06885753760754154,17855.218664701704,5750.566133617181,3090.7039267417304,42477.876016522525,33337.257410241735,254.27277772887348,10.655524238655362,20.229637252691557,7396.61151373531,1674.96171587687,1195.7226172549008,0,Low Risk (No Failure)
71.36122632532087,12492.040612259318,14707.328121185355,0.6934258020995963,32753.516754131793,9700.331644350124,11115.688610245059,69821.045267893,64784.05006254198,195.3920732461582,9.928974059713855,22.786327283964944,4871.539222244645,533.4089076112284,694.5214710958271,1,High Risk (Failure)
115.67062585314666,14392.387965298542,7329.437460598722,0.6150849664876834,40758.64700878487,27057.275973783446,4053.7925554414005,11374.030753507956,24316.827202658646,160.7595393612184,9.34483604886558,24.496379411170405,3724.900620417706,1756.977968977458,1175.9441160318042,1,High Risk (Failure)
64.95292654709496,3491.401257881794,28429.23202154157,0.5350292127687839,40537.23897664783,14263.233319492787,8466.751672189472,40676.452399341855,24764.41907429749,180.0208069153864,10.92049497468276,22.93445871864726,4271.384910326154,971.9046701468103,1140.0721142429377,1,High Risk (Failure)
201.07049789496128,22184.924966763472,17576.000218122033,0.37728572437123986,28691.397753439294,10842.007110361912,1222.1554631214417,47582.59577953086,17916.24908555646,252.80147841890985,8.392712880404682,18.759874471144673,9638.340870992208,1210.6413294596582,876.6223083958945,0,Low Risk (No Failure)
93.33046240136287,26635.935529264414,7600.356834524922,0.1385067778251592,52935.645968023324,5051.425518214057,4278.278523432311,36845.29433894312,46035.89943680547,242.15797224975393,9.381708946587239,24.44904562739993,5602.636968715357,1229.1110907815,1196.7338593004858,0,Low Risk (No Failure)
71.75947957280202,12996.300183913001,10093.77918652842,0.3093267742168119,16938.034183774373,26047.332150016813,2916.136010373106,26657.886940103814,47846.712235758314,257.0885868505535,8.389599775433105,20.310047262280428,7555.498011702442,866.6629350634549,1379.5655829997133,1,High Risk (Failure)
187.34822194296038,1434.9565109369637,5533.554237874503,0.3771170641716802,35749.64333402342,15432.647975988208,8197.91405664546,63097.183165050206,11701.09484658569,293.62201467353697,8.038897370705573,23.008914865567448,4791.928239448628,1817.2387581912246,1384.400485860931,0,Low Risk (No Failure)
186.22919548416115,25969.96859919497,27062.420765210092,0.03291376866117368,31044.39644464225,21305.570611080708,5041.856683196588,45093.1244396019,64293.36828324893,240.67206317075838,11.008597637435688,21.0849205107756,6693.665111890234,551.1246725549087,856.1771859860596,1,High Risk (Failure)
185.79290436176927,5687.493119753162,29450.233309512732,0.06443762555269228,17718.539626252237,23826.024907898427,5601.911047643291,56880.714405768245,12125.403390589065,153.0116171275047,10.299421957005464,20.780387658029028,5177.47178204374,695.5975382221754,1291.6435286353826,1,High Risk (Failure)
206.8922483518641,6323.809193299234,5377.7783800248435,0.5238556070428226,17903.508499394015,20316.397380709328,12846.679272187248,62661.27096873151,18694.974903266295,173.2022842928058,8.15932316124283,19.900647551129953,5448.339000563715,1473.5483150275513,962.5046658357518,1,High Risk (Failure)
62.65479690121566,26054.13841633869,32528.995727651305,0.9854047834806314,49164.60368448231,19288.02414739901,6941.335105694848,18432.32674164537,61946.96711481705,277.3658065497997,8.359618039820468,20.827927408203912,9571.037665593838,1609.9426722586593,711.7160249331332,0,Low Risk (No Failure)
101.4874814185238,22711.493082278736,18426.267063988227,0.24423946808817598,24015.721373187123,22667.489725719075,7610.520627283901,45178.659099996235,21077.71259888348,195.60610458468636,10.196250887330638,18.993690025481246,4608.965289388701,1805.593060280836,1041.2582378131942,1,High Risk (Failure)
138.15930122558484,19956.037815762993,17869.099421525218,0.6077227478371263,35026.894837960805,20214.8021651292,6519.237055861345,41012.84043842066,33307.43960768813,225.97418904314523,10.233776036853271,19.498680824801834,5191.509466369693,1605.2087532448215,1212.2947228196413,0,Low Risk (No Failure)
88.92562408998073,28523.012415717218,18564.171653673424,0.5518799421186391,58449.61130522755,25334.2371578264,4987.924306296813,22894.67618423768,50096.43282621716,222.92954497727106,11.273670635142135,18.122485268273127,8827.248681013578,1781.568071881112,1186.6989806168522,0,Low Risk (No Failure)
163.34675861305618,28919.244931973033,18383.429213755633,0.24481173128413558,26192.205689048813,7331.554947723224,10772.644592190656,10192.623376121608,50038.564863199404,210.09274969072465,11.054944566243051,24.76790037207356,4240.182961069815,853.9024038246895,769.7515189308997,1,High Risk (Failure)
162.16415162625367,19217.991315698273,17707.574806372366,0.9453581344565326,57922.528734373125,7415.536738427332,2984.983145569751,63088.21217117994,59910.55378265364,122.58216741422281,8.051225206604997,19.311733565022642,9455.24852081405,1202.4741344074387,1331.8842193270925,1,High Risk (Failure)
193.19082252806749,16525.085273788045,32834.30184943089,0.9843813126186033,21115.832203171452,21773.269823852726,14298.70653063336,65639.97044970168,57248.615682004405,292.7186011207563,10.712153512462937,24.48532875182844,5571.719182214956,1974.7369535126952,535.7628788062203,1,High Risk (Failure)
171.5535011055419,2834.617482799569,30482.6680836467,0.5314674959574129,39110.95795045403,18063.38088962796,12454.51509610437,12483.180219459142,27365.23958465113,295.0687616035117,9.470866080553765,19.27347062166122,4398.231851512527,1722.3770503075068,862.0421550381587,1,High Risk (Failure)
176.49862997378662,10419.168546030456,28800.344835829277,0.42581714651170155,47747.44933470196,20716.016291845233,3361.9463945972807,14466.119361837867,68616.481017769,215.6413282643258,9.018028365632421,23.690431317397902,6026.242570986228,1138.185164046958,1276.6857867555,0,Low Risk (No Failure)
163.96608748228795,12920.368613125685,24090.443758011697,0.18923531094927004,32999.75685642749,29499.520159377167,1001.365973866976,65449.93391736775,25525.537403792376,292.57185162547256,8.26080314958702,23.773754344449145,6354.119522884952,1531.0576080270637,1389.4943785497553,0,Low Risk (No Failure)
155.40318055712848,11325.9516744552,5073.637593315327,0.21018510362154375,52983.54304720057,26903.608749046078,13764.711487827133,43910.301225956486,31715.852541564152,287.9793964022525,8.614899552942065,20.59064037494792,4167.356981252795,983.8695944159716,574.4069363624409,1,High Risk (Failure)
96.79900063411849,20109.34102410754,9477.856909664186,0.1214157653119542,23639.29204022918,8530.257731936332,11764.235367293426,53383.8240131912,11360.279912909735,291.5943249471351,11.858116092155681,20.52479874780817,6305.374708221789,1914.139677089796,1263.2342358956455,0,Low Risk (No Failure)
181.0006066275895,21260.432093526724,30538.665178925447,0.537074215903326,33483.501052592634,23601.077017271746,6396.922206296929,39311.07597011792,59272.44216330495,198.31025395149402,9.14580632766667,23.177845074267296,7378.878386901923,1875.1639487181114,1174.636859828202,0,Low Risk (No Failure)
197.5671479698633,7424.287405168644,28001.350232621528,0.8290686462160908,34696.23172011203,25449.358597392937,2137.6178041457306,23195.331089540043,12139.630231118337,199.00873199142725,9.462298426451834,24.028662577069813,5677.658461553053,1428.571282620704,1399.4717781122422,0,Low Risk (No Failure)
216.5640749422625,14585.37587552551,10983.88060499156,0.35897042968700865,50432.209143711254,5704.124850419152,7032.808497504044,65047.01408738481,14957.04584807912,273.1375838206362,11.146324185667263,23.015549589499237,7401.019420916983,529.9266631771467,1203.8686541253535,1,High Risk (Failure)
89.3447215765494,7140.629999520166,5422.38989848672,0.8487524666688433,55481.33474079431,19661.694301013682,12480.809059645297,55763.91000513304,35672.46902293807,195.31071635828778,10.991710148257265,23.632861774824065,5784.570871164169,1696.0731008640887,835.069964587058,1,High Risk (Failure)
189.49778487656218,6587.615498114309,16525.825547779325,0.000554184585253914,33212.6390150221,12771.752930436825,4363.342193089458,40258.86232199035,14205.506692015995,292.1084559802103,8.638098587373532,20.86770403063443,4209.905444922877,857.7482733795582,1311.5186866124905,1,High Risk (Failure)
177.00009429558003,1969.1218464467242,25032.68075595607,0.23664354788190134,53142.800335299275,16645.141358398396,6229.160870564804,67482.42544622987,19600.63242177543,128.37631520306343,11.21935132191107,19.58992095373538,6404.069623882783,589.1291769294347,712.0345061257532,0,Low Risk (No Failure)
177.97713238204796,29277.527921522757,12709.578135613432,0.5273732899708411,59887.612656653866,9189.562083100487,9543.780396314944,15958.657401779197,35446.739676226556,267.5258039928333,8.368081834646208,23.97572943273926,9947.531764986436,738.2521262086741,1221.796447520539,1,High Risk (Failure)
157.5302934367835,19811.80564736357,28517.758374256628,0.7101418825625281,56616.97208690264,10492.190635737043,11553.330324777226,63895.50399122974,62769.61149676895,237.92596011207962,8.904487884754868,24.86922458763123,8524.421148365627,1898.089679560934,977.3222703925937,1,High Risk (Failure)
63.93390663340824,12673.264309214119,16688.780520740314,0.7701116522302854,41730.57154086378,17829.83886737405,5056.157792322818,55044.43364870146,38505.39273013544,121.62273151188168,8.974845103238597,24.24057878171879,7424.907222919384,1281.0323315398023,858.0313127047043,1,High Risk (Failure)
162.5555323752531,26067.686628637533,20075.888801049667,0.08395570307090161,44737.408433717355,12003.004915034702,11910.724120836476,50518.695507144745,22286.6429158413,247.9070860985965,10.72524376403869,21.0447065758058,8300.164416568668,663.6549397852863,936.0817942302672,1,High Risk (Failure)
215.0914899654686,9921.997533333759,34866.47794218708,0.6126612471519991,47255.911318677856,20805.667394290824,13798.751504130212,54761.998865787325,25863.85337766849,273.53312194017786,10.073841575089817,23.505319089976915,4068.544279609279,1153.1910513814867,609.6366655406875,0,Low Risk (No Failure)
92.69062134383525,3482.3870318602812,27403.113338582873,0.4084187074986926,59001.51701121877,13168.217264687655,3722.474828251941,23870.017564924914,66086.79444541785,100.11181878058493,11.977520270144545,20.66822619805058,3281.8823279960384,1773.2383223370018,1333.8986528046705,0,Low Risk (No Failure)
197.97819339947924,19772.921896819644,32178.55757583933,0.166973873672554,57407.16141303924,5529.136190301857,8477.912667908658,17777.141190694758,56864.17221431275,110.76399942551663,9.871683004298674,24.857695928490838,8520.220827740482,1161.1500345021263,791.2640275985351,1,High Risk (Failure)
128.8846941539532,24497.51478500132,24903.749690482775,0.8786215968075725,36962.810696106244,25919.152756373853,12509.926757415804,10734.014369335973,61316.171180325575,234.54583571816943,10.22044948501014,23.035109236911943,5398.306503904307,795.4009568428457,818.5802305752613,1,High Risk (Failure)
183.4603057565772,15962.430477237278,8034.5317375528575,0.12308785340327055,44405.622519242825,23260.662029096406,4995.291365574327,22372.473843127067,34708.52435648825,126.31938156137022,11.813755298813257,21.083223730571166,4679.640657759355,777.8570339177063,703.6706305638294,1,High Risk (Failure)
165.39482219632356,12702.910003596962,30564.186915634273,0.5807248661428057,51984.21096918806,10541.36687342792,11200.560183418222,52078.197069848866,30867.91679884195,172.72821632939838,9.697623031383532,24.442832307243116,8508.161089345602,1611.5583557986297,1488.0201941119883,0,Low Risk (No Failure)
212.14857512040774,14475.994584909786,9489.101645267801,0.34141225262744834,51857.58550512074,22646.076546595836,9964.790140657029,48064.05668480058,45088.3088609609,224.7083009985839,8.364057661400443,20.509873822187746,9379.704365747737,1350.367831362643,1103.323629002106,1,High Risk (Failure)
159.97985593711982,27754.5997422682,16060.322715474342,0.7167247826814506,38220.2381478206,22479.972568930825,4196.032927796318,23137.17406072963,63428.311635380946,223.1714351798069,8.903881321616598,21.99191723952773,6551.967239176768,508.88458868937903,613.1327743735187,0,Low Risk (No Failure)
68.20701583699449,14820.470363820537,15837.283821230314,0.5270439968286811,58315.63143199345,8039.3255040185695,14011.279538241306,38330.67295885051,31748.114161243037,260.652398847138,8.158124640429918,18.52495980107291,9525.58279575958,1549.262660257154,762.0706443321908,0,Low Risk (No Failure)
107.9836148791258,18373.88042797982,28226.466744990765,0.26062929787496647,17598.132584294148,18862.368903874718,13074.480929451292,16356.543248789452,24515.617359142747,186.38692404048626,8.0789825578782,21.102811722677306,6715.783547888794,1022.7284056195215,982.8798495490628,0,Low Risk (No Failure)
99.60956324478182,19238.249202784835,6301.900824681556,0.9726277413964189,31176.22093302037,26126.21782168577,14046.19555701699,10517.123655934021,19915.58887837764,159.34869255501238,11.507549178017559,19.57300827095189,8740.687790555607,1942.1002025405814,504.37567286295007,0,Low Risk (No Failure)
129.5723741765994,28035.739633708195,6290.41893140166,0.3196956866662505,39633.902334287515,11129.488508557053,5677.603165983642,67889.76700618886,39395.41682617566,282.52416861694996,11.387585125796466,21.81935869335597,4329.395870233611,668.6314557073689,696.1151086690081,1,High Risk (Failure)
142.50870843143963,13813.757534640854,34958.34281112363,0.14564579602649774,30375.331797807732,8834.83556317303,6965.152382876517,52286.36675463984,57501.03793048986,184.5645921652383,8.345194893309849,22.81045775660671,9794.35829888672,1092.002570635183,1210.147617197332,1,High Risk (Failure)
187.27199372635667,16215.496893883046,31540.471322650632,0.09597569669611294,19742.70632778885,21594.923347063996,13609.172084859707,51841.85772399799,58602.698736070466,187.15248824537701,8.974261194769461,19.479424796429207,5726.275567805253,1891.8228597234054,793.6554069642583,1,High Risk (Failure)
62.88104889607272,8749.086969096148,34747.933265899555,0.6220595092821081,21200.98974197958,16604.896666123685,8139.88558914796,24173.207609887264,51790.598420439754,181.4221430943769,9.608065345640728,23.9733996000921,9781.46300835373,1667.026148135252,858.4859636646217,1,High Risk (Failure)
95.27779345122806,2516.0939947940287,26005.626824913696,0.4937694913726616,50212.753617721166,17744.584143539607,14708.116263927695,28012.164121212907,63479.37838299268,193.01532063142076,10.802956834502726,20.561513260355255,8046.53735342203,1592.3334004014657,1009.0199446862134,1,High Risk (Failure)
153.69019660692828,15532.471323935097,18740.438729478374,0.9531825969108852,19803.15069065689,12314.26481346753,10709.569622252735,12692.818305384737,21875.052747702204,170.5198550226058,8.755298682080992,20.09761394655466,4909.227780468545,1192.1911133276587,1474.5910477233192,0,Low Risk (No Failure)
198.447321425426,8921.628990728408,33207.025786186685,0.6218560854845758,18762.102646098632,10399.704835893877,10282.154048916338,16255.17194347686,37934.94869706473,215.23208220309607,11.548820886094322,23.026538561517174,7328.961582526239,1474.1212024089075,734.3088851518805,1,High Risk (Failure)
149.93164710441135,1951.1963540299844,26916.988113002146,0.4012299996116918,43059.72972379361,15204.794544300532,14078.677776452734,66521.42611778932,21001.317680451073,105.62620880777848,10.549746945630526,20.576639856831612,8122.804943753448,1914.5830531145732,1324.1199350559775,1,High Risk (Failure)
125.13703826010043,25059.67035523492,24287.9362448228,0.8569838057113758,44536.37148604531,18957.494184282612,1247.2144785971768,68394.70799038527,25267.8091472748,109.24091953001864,10.934876858691297,19.780808544027447,4645.267994702966,654.1842038299858,710.639275899922,1,High Risk (Failure)
115.23570284827073,1905.1932498236793,26589.91776790135,0.2824043288458643,44168.080121941806,25497.234588479554,10975.358216271892,52384.57083808393,68982.45822502172,210.17857208096152,9.390759420357572,19.013055365586567,3611.2714652921777,1396.4709448115136,864.2524117326036,1,High Risk (Failure)
214.04965713184416,15764.288170438138,34496.47959961237,0.08032310568953338,48406.93722926871,24779.667180859095,7378.243791398775,58239.65146863048,69309.17321921507,227.27174002177364,9.145829391025243,19.29003747538111,4066.283208020363,826.5549653880286,976.9445696497971,1,High Risk (Failure)
82.74193980695323,26385.53395712206,18914.891954498962,0.6382322463602024,29986.729052940296,21156.23754650951,13183.891943546969,55869.11625165735,47402.91450814748,239.14258358581012,10.246050424280003,23.85970956641175,9521.178117835128,577.7452707599365,538.4402513615912,1,High Risk (Failure)
105.05856673690107,2966.095479015265,34314.359984012175,0.9670554032283101,18857.533579317704,24428.992406495727,12652.837378470822,65026.1210642702,61015.671922125504,265.7982214607721,8.948470664516087,24.192745982284343,9963.968420825038,1501.4176114349648,1209.757388500163,0,Low Risk (No Failure)
83.76108506298893,6727.102167908937,17440.70462497359,0.5457774854056106,59240.68844917264,20420.914769211995,4232.145921216418,35454.93200368802,33812.263062686645,215.0977893296408,8.3462161006001,21.539828920077028,7658.487838689426,594.4266490219394,646.8968523477531,0,Low Risk (No Failure)
133.36296994992244,19713.054904383323,12710.186966672967,0.9315776530185765,37247.85162484181,16364.386472341179,5073.745427721604,68498.82853488607,16109.588856301287,196.17377498358178,8.707032190697973,23.2916633206127,9958.911413566571,984.8732834966283,832.610363274842,0,Low Risk (No Failure)
134.49568290119362,29527.635913065402,17836.085445589735,0.6961459249385411,55219.08787246709,22501.604312330015,5321.134674288785,22031.504655354147,63228.80846870975,262.3625834792749,9.711861254139443,19.116413292442772,4092.430708450856,1798.0500202761732,503.3804689093162,1,High Risk (Failure)
116.79940893310997,24406.10358926587,29169.10775824755,0.9633933783698491,18392.291458968983,23433.870250621527,11794.40852812727,30761.139966459014,69218.63630054196,173.4770321505858,9.401622054841127,23.503406705971113,9820.42893284132,1657.5555831049792,929.3048387340946,1,High Risk (Failure)
115.328975745668,25046.271618547613,27094.826261503375,0.812952983647206,39896.898091472875,11853.318970334169,5341.979572204892,32605.754874781127,38166.70171633814,235.41361428687637,10.153113903374518,21.671985558609173,8668.594333844769,1771.029892023528,1412.6709149404337,0,Low Risk (No Failure)
68.09959556305186,18666.66635040646,24397.91851407411,0.38883651704739997,44502.8946200245,8447.269435533388,11175.654311069511,45881.3312669175,65587.81218823382,199.71371051112374,8.1414484427529,20.95724194074406,7527.857515026293,947.62263066021,1113.3507898980574,0,Low Risk (No Failure)
76.45481474519627,14465.620599059432,31408.737890402906,0.18828034889732204,47705.124855987044,17195.836818696087,14035.932011741499,59859.48488425017,16166.233614958419,125.76104062814167,8.38518312084596,24.041006109441213,5153.24687619615,1509.463087936018,1036.9732943506433,0,Low Risk (No Failure)
202.144587569389,20307.747642597256,24377.49579216542,0.27887084899122305,28804.461929382822,7266.462341479275,5020.218936069994,43572.78812468645,69217.1011781163,206.46572167732253,8.48368149683249,23.941014646643335,3087.9404916234166,896.8184827662019,1325.6063333304683,1,High Risk (Failure)
114.12280095911974,18954.52060135419,28351.868430596347,0.6722525000742134,33282.1815741278,15844.068594814029,13338.511715792265,46299.72544822257,39584.87486947996,158.76837922726276,9.254647833544302,21.016262411801662,3368.8842541819704,1180.8897967220792,1362.8433234146519,1,High Risk (Failure)
170.55003809639456,26671.927482519393,27879.576762684228,0.32675604724303087,54179.90149284402,29742.24290478675,3973.858188343561,63137.215855284725,20276.257015223637,140.32250621115185,10.616997713790179,24.5493668535594,6107.537955687809,1072.6521174017766,638.579473258361,1,High Risk (Failure)
205.00073288336586,25106.128347608334,12269.89434361217,0.8890749167467196,36467.2471972597,27774.925556101614,4141.256569923385,47147.78106833223,24129.837109364205,267.1715707616057,10.636214668765996,21.49616220850999,6907.176270543585,1466.0348824147864,1316.8399123638508,1,High Risk (Failure)
149.23341220000702,8768.333901705782,5462.454982296178,0.5408120707980756,32294.29359562673,25646.966936461376,9162.435488694286,58142.77775781292,12835.432019974009,275.4141666583798,10.198430027318398,23.047836162743437,5647.224253855753,1227.185458874075,784.3838483971238,1,High Risk (Failure)
151.2097872142984,13097.76409029536,31201.524931131426,0.8001582366647964,40812.260375571146,6233.85107997912,7479.0189784441845,18964.386693201683,33339.19524828407,101.61506575449751,11.810094551854498,24.974569553330944,4209.080337752577,699.6833677256417,1383.5457799081669,1,High Risk (Failure)
169.8123514697756,15007.409272474564,15951.538326254164,0.4274356695512971,28843.692364504037,16570.992554693396,1795.787845774392,20385.979474318287,11267.290528463927,224.91340368855796,9.653599605460323,20.24925710950589,9491.914252615425,1587.2001784771016,1131.2459447968033,1,High Risk (Failure)
160.1375865142778,21094.358419718264,19627.95314148683,0.6221976462801331,38859.857151944714,12631.560725435367,10622.727821685283,14732.758989018654,14046.702890635635,237.48363807890414,8.368458638403714,21.511735755958178,8376.995973428664,1289.3065127659763,1006.1213479377499,1,High Risk (Failure)
98.37985804095115,24860.047047937627,13833.922965234806,0.33401467075765423,32647.049485855296,24970.262996637546,14595.527721749644,48163.29768472986,51186.17461236489,103.61987441790521,9.888604855502445,22.545000251353848,4053.9097236890834,1066.349280133913,504.32433859438066,1,High Risk (Failure)
129.3910930112608,2563.050421419875,11032.504652181378,0.5753817036099419,22245.824977090637,19446.94633125136,7040.770907855311,37954.72976521653,62732.15411119023,193.60676448241873,8.738493314950427,21.387220963742195,7632.690841616268,570.1784953161123,1109.3810282736376,0,Low Risk (No Failure)
85.63609615624101,26912.50292145467,27901.43779350688,0.9040817085413082,33430.26121320497,15587.375970696705,13848.050047278119,24466.17933439809,24445.65523201329,151.66260013531854,9.933168234835275,20.50675288594296,4489.828840606702,793.006473223521,730.2653042911712,0,Low Risk (No Failure)
139.39827550413023,11961.08231359724,5985.062872516328,0.3575995256864599,58041.64937540521,17125.517692239904,13929.121711838578,38460.58305200533,66939.32885798177,168.20790127742112,10.33119313860402,18.95843106986715,5273.590249659235,775.4101482864738,1075.382171132222,0,Low Risk (No Failure)
188.48033151325393,4652.278590377517,19799.006487168772,0.5980183648366367,51796.46903314227,28661.26145401923,13272.508296466025,60826.89203815361,41846.05659045542,245.96759838126746,8.405183655211165,21.294372253379393,3497.2971954521354,1818.661568926853,617.1887081822229,0,Low Risk (No Failure)
76.78882854690798,19929.1155895395,14000.914417864898,0.17163501741537301,16173.747900812481,14991.897261046759,14995.760935226966,62367.65027170016,60832.13079861911,173.70573339474288,11.711244028174345,24.192221393393677,3853.508595373455,992.2647397260395,506.96071306309176,1,High Risk (Failure)
70.56157506243865,21414.163344000946,30833.90729134344,0.5461545912071964,32571.529823674802,22747.494943196827,11416.801318499121,53694.011425787,37296.769899846,199.17516299058138,9.376011663921046,21.537712145848086,3170.4929372826246,1598.438357342665,652.7058077301164,1,High Risk (Failure)
195.14654545443588,28357.361662586565,8686.26739682458,0.4769678910959445,59462.5073380849,22349.707106479138,1942.6955843901005,39362.15951612705,51851.17783528925,176.89590426551152,9.859433368091683,22.13196985639533,8250.491595601443,1537.536812021592,1483.2149950969276,0,Low Risk (No Failure)
214.1156063104978,11430.591275468965,20721.130096027606,0.8364458962596129,21103.674068428365,24654.764851628963,13854.41560541704,35295.04034743817,62495.957594447085,227.83149916226412,9.848300308143237,22.27983407079904,6386.646656903988,509.31194559482196,1319.349630525595,1,High Risk (Failure)
75.747870256219,27806.27603962021,33532.72038701229,0.9246447125824141,57150.97076782026,21487.437261471692,4632.086163234027,17453.300596516496,21666.470627080016,199.2613998848479,11.595028395583402,18.860496787961964,3686.208012230376,1601.6561118194893,1101.6900835997517,0,Low Risk (No Failure)
123.20853405708735,15860.427989923033,22140.54697120836,0.5219299528037602,17530.234355195753,6608.1320870612035,2202.0482687677386,49351.864846893564,67265.17128179918,169.6976460438505,11.892051010636335,22.428507981951068,6613.856328406563,1941.3659467888112,1205.6338797012781,0,Low Risk (No Failure)
209.48865826679844,21001.34451099419,32569.379765011956,0.7166062755650501,54774.845845761934,5344.692613613773,10035.45842737254,42063.303010815594,67199.1586268507,166.979885603907,11.333065014490757,18.856313473228166,5957.226519416259,1661.6279705014397,886.2447454949563,0,Low Risk (No Failure)
172.1550610334592,22447.854139430536,15895.675882725476,0.06036584351505736,42427.57183757615,11990.322460635958,13471.275231817279,67631.10802200693,55308.14258625904,146.19228624990876,9.254480917788092,22.885611756585075,5356.53624318943,1998.1870582838803,1300.505414271203,1,High Risk (Failure)
89.03013563130031,14338.31658752492,22823.139148262755,0.6132863938331298,35901.426557280225,10740.313912992868,4435.487439076098,16925.96678045883,27882.561737444463,176.0137103624871,8.17825734354962,24.85933845240342,4492.60057681937,709.439404035435,983.8952984103832,1,High Risk (Failure)
104.95411033475685,20207.219492647888,33113.37481764416,0.07727172626717704,48822.21907454143,16502.456448872963,10474.47375088003,22455.950082590774,34121.730536999996,177.1671849516137,9.256806229560995,24.024572582452556,6008.826351811666,1855.8605153521696,1269.8731150124427,1,High Risk (Failure)
62.598950913512596,17014.446125041548,14265.314274273775,0.6179182568379911,27310.72080998734,21527.13667922469,5797.432181039016,22301.895001589277,48468.8181420121,293.9067296329292,11.16283788433391,22.039173997107483,4866.35764358883,1057.651887433538,967.2458022372455,0,Low Risk (No Failure)
185.70425889283712,28723.421705956098,32414.443950086374,0.9116830043297359,59346.67877572207,10942.950650519808,2402.835487722396,55014.4232375511,37567.87987026695,260.4437617221972,10.183206647166863,21.396902430492162,7621.267246022999,560.577731728408,944.6107745230977,1,High Risk (Failure)
173.44968311214663,12088.536600787209,5693.205583624408,0.6344800731734802,19550.617760241938,8035.087496068659,6201.691443976032,67881.66895601826,27638.35704072556,147.94125204926482,9.104850306616918,20.245981710462825,8248.160313369011,641.8228493095681,983.0275499337794,1,High Risk (Failure)
126.37210488341631,20934.307467885723,19202.63391900337,0.17335793021138268,34343.33902304333,10969.160419051052,7855.527719337803,59540.251620588955,61615.7419971864,123.64095274765414,9.21236125747933,18.247118929126763,4411.313080520899,853.1331712169911,1362.3225414030844,0,Low Risk (No Failure)
212.90423971676054,4295.735122204863,11144.045748175009,0.6795518622851849,25544.93063847036,13963.054470071149,11710.873567960989,19133.857405236056,36628.92507292301,101.7796813363981,10.672957971407598,19.832304300725234,5092.104211249918,1531.3020306566048,778.1592621694645,1,High Risk (Failure)
146.67276998560064,3179.1456421500106,23432.300279514973,0.6937260614624422,35390.64331066222,17984.377630270075,1504.8664919083396,21825.13878910194,38889.8212180971,224.59670102739392,8.933779354027017,23.65434117748252,7158.060477350113,1179.3843936549833,951.2645030884104,1,High Risk (Failure)
169.85438615881708,16036.296273324973,33696.91785683507,0.9051338748441857,49674.70413121056,28642.347122063133,13750.940402360131,43027.273205879654,52659.13354639068,245.1408123033049,9.081865416915466,21.304070614637318,7759.190941588829,1320.8397347026062,1112.8215225088898,1,High Risk (Failure)
146.61990734519011,20921.620800177712,30940.332577569512,0.9854753990044323,40218.51795070249,22223.39102521407,11299.986906751812,42071.64245345906,24319.561277721266,100.7627110784203,8.467887547169806,21.940497090153805,7639.537851196441,514.2254641658936,1177.3595699342673,0,Low Risk (No Failure)
144.4283945954712,6998.276207881646,27432.37462797884,0.15386296945383704,52217.047101427335,26036.200639576506,8303.52045518811,24138.037423028793,12289.538413242404,173.7289712543799,10.578103141027048,23.269785955896737,3323.5366747589264,1065.7062393098845,659.7502035885519,0,Low Risk (No Failure)
115.41535909855381,19481.762539602692,5768.967496532678,0.2977198480585169,58501.39275574446,10507.154193668315,5203.25289129124,26287.80974191214,32000.827365712223,165.48530112638642,9.948844633198302,23.74752754888965,6246.867888750747,934.5523638727528,861.818664907282,1,High Risk (Failure)
105.72536888413923,4171.321190174886,29131.893407456057,0.929652877790556,45377.336323139454,17905.433499413983,11885.662438912688,59707.50939638079,33836.01411945003,104.0381118208562,11.663130027785222,22.435098822710607,3307.108985524058,1754.2834770076577,824.7677508861913,1,High Risk (Failure)
150.76995514062457,29052.51522925062,29302.07924687683,0.758555228466791,53702.24458632977,27805.05720062331,9606.323374261518,55559.81385032208,57062.905475311345,190.42663166797945,11.8058196962741,22.477394997842623,7015.695791593554,516.780267712281,1432.2911787614353,1,High Risk (Failure)
159.79889357824146,8355.63175589989,11603.882625072925,0.08516716671055635,18239.187167539294,14088.22687223943,3530.275586269148,34649.28537149516,53434.167993607916,139.9271712927301,9.8408578500951,18.906019138825343,6475.683920525145,1602.454140426503,953.6415070078949,0,Low Risk (No Failure)
127.03516380472391,6453.1916850747875,17259.730466295085,0.3286973872172636,35194.37497920756,23418.22871833514,11318.105252863586,66984.72088238611,21047.148577697277,157.293740484797,10.800153684349453,23.077311745694562,4153.237687988307,1547.532490420269,831.3728731999315,0,Low Risk (No Failure)
211.04949434985812,29389.473319785193,33807.56975604313,0.3914360202228556,52149.85707379588,8624.894139111511,1351.3629769579734,32029.5491732091,38751.72725173416,110.61397312351802,8.213181600624294,21.97749876515684,8476.444182489582,1162.4457512744336,1063.2048989835985,1,High Risk (Failure)
203.4861455849619,11441.737155991053,30791.863505066973,0.1142946811423835,18854.009964332734,27087.143558388074,12350.383855008644,27845.512921773196,58589.62001890834,157.00054599020595,10.677509860221637,21.346336750016373,6361.525102393808,1766.047323952858,802.0243677318214,1,High Risk (Failure)
196.36221990258903,16772.45971367241,11363.761961658198,0.7612115151654739,55251.53811450491,8349.772268931581,2263.5386635650434,68134.54525711932,43958.00942971289,182.5146398630141,9.641263017485178,18.699532329501658,5569.99343020895,686.1222526402618,871.3795712161209,1,High Risk (Failure)
89.84296166397668,4780.240771254701,15336.85723963626,0.1959787224916677,51320.977292025316,10727.866693916912,12905.321629338763,36641.24081537344,25027.682136181516,175.0150047008462,10.828810487288242,24.670029941225827,3070.7042161726026,695.1038027868209,527.7364389508488,1,High Risk (Failure)
114.70484449687845,8831.695516945116,16345.154433587937,0.425458332634434,58690.10665761534,25299.115217689457,10482.73165002278,50824.26200433218,44220.98027480187,275.1941213369045,11.676824907001468,19.590516018377556,6140.9983705505565,1082.9635366073562,996.1441876560281,0,Low Risk (No Failure)
193.21788373218098,5244.818931080065,19196.450897543153,0.44003315300400536,22195.381213227214,11947.61868630154,8810.925823185298,41206.58636302785,41835.45589126508,253.4640248044636,10.087293860475938,19.24961407459468,9366.709782552378,713.5525807423976,596.8482498631189,0,Low Risk (No Failure)
106.7812976659509,23715.412680727124,9208.016403775067,0.7798425810193168,22969.35124323377,8444.834365961813,13745.824671775832,61046.58463840017,29405.727231847457,100.14100236723044,11.199394569348604,21.134226169809587,5372.275544908291,1240.8661733640351,1358.5340534202894,0,Low Risk (No Failure)
100.03886370633525,17815.057705384024,10724.284743389213,0.5861105358981351,59320.69121107106,17834.851789626187,13979.504450438219,11758.807452853425,35601.767122813035,250.56701682855552,8.382535076925294,22.657683858483068,3697.885601114751,1663.8369835476208,873.4533339096647,1,High Risk (Failure)
91.32447770936737,15745.892023932756,27201.07834952531,0.8725665183579634,42015.960847908675,8539.533797826356,7626.070322226408,69590.24614757468,14716.454427896426,190.4636210901101,10.027718242516187,22.10547700210077,3267.78990456453,1401.307911872432,1444.9115298370896,1,High Risk (Failure)
147.2986862905496,21154.133860522797,31031.16379300064,0.08240443458404445,59536.1790503935,25063.55642893354,3237.180453046359,60245.05653045813,68306.69975238282,191.12356832457178,11.151630654977787,22.100734520116262,4246.430548751963,1228.8014304237208,957.177678623766,1,High Risk (Failure)
191.46190363367546,21878.826641714906,24454.927926416123,0.6698908678584068,30711.993066053335,20867.140359180055,4378.441273362589,66576.09844444993,35920.33283897625,225.5698035468421,8.01767723559572,20.205623544587443,3771.9507135404983,832.8649480733612,1218.7393601059866,1,High Risk (Failure)
109.01015980451403,16292.015973629406,6917.694925758164,0.35917265055930025,17763.135868291025,6871.715735566868,4361.812864850966,27714.226560830597,68736.81719823196,229.53343933896707,8.648255960718192,21.638616563019404,6017.44796784107,1212.918573247388,1239.7181379698227,1,High Risk (Failure)
75.017165571737,25748.476272571308,25035.806667190413,0.18064373322469496,57262.16546498037,5804.753746249206,1422.8821381553325,42421.89235443561,63227.59675069772,247.00726332483833,10.029526666397308,20.138555186344185,7222.623554517609,986.8092234005455,1318.1263854225422,1,High Risk (Failure)
211.83690672752022,7735.927578924522,6215.0205944575855,0.14679375943696293,59889.649272781215,12137.704160409787,6669.035322528146,30901.680543299524,42527.62290180072,180.26393715330522,10.292571735663719,22.894840158577157,4429.371258746971,1185.1091685189485,1363.7584357941455,0,Low Risk (No Failure)
132.99784143288673,2443.649044168269,10650.406198683504,0.007310488654940772,55471.16398542784,23110.075007947275,12906.97757983169,17007.102480408194,64456.72710360493,276.9222609844836,8.803440292320632,23.624864212091957,9839.21208936425,1800.711717663394,596.7353192098788,1,High Risk (Failure)
184.0390482935919,8650.376173444369,27890.58193447002,0.684722537221332,39518.410102621725,8145.436697870926,13102.04248617983,64473.869198203436,19971.523327265022,280.9569052391165,8.10390921653146,24.949175139856692,6414.496278358434,1651.5518798494948,908.5281114994729,0,Low Risk (No Failure)
86.79721316145117,11155.409205626871,18742.00817218674,0.23624696771511466,29861.621176598506,19361.365957269896,2067.8358101441204,29772.860688725417,51056.25510768086,199.04739661668287,9.038775250173344,19.725160886870313,3032.9705731258387,1930.9698035303718,954.9984587378951,1,High Risk (Failure)
146.2658042680407,25406.848332976642,25699.070364251747,0.9612792423673864,50994.08720378449,14614.34866013124,3286.99116399077,35480.246477519606,53354.90985018905,159.7883755860885,11.190068180413757,21.68810562832742,9380.82503552354,1452.5295525989945,689.7565576550328,1,High Risk (Failure)
219.17861074716274,13038.108128793045,17082.60856242326,0.927069116051185,24304.463674516526,23884.53222120392,6366.137151446048,40321.346591808295,36630.96043444914,125.69528638575403,8.944867852494927,22.968707345492557,5322.512800418219,1767.0498093511083,1142.6132477143694,1,High Risk (Failure)
193.38304167602757,19038.85489830827,17248.003217792775,0.4289237077401594,24608.332069951393,14126.281733992628,10397.928091967213,15695.634158262656,16969.22674396968,215.89725986110867,9.961480372114027,18.044490646738467,8729.532873012215,1865.5731977658563,601.2562214007839,0,Low Risk (No Failure)
211.15780140529273,15095.668715177746,33334.63639535731,0.6776737747680467,42328.893431457385,29721.977981375338,10065.103317839763,39088.593872237616,27098.151723560684,116.73487242797403,11.941625622111326,23.805910073229565,8653.311125103468,617.4331204687026,1435.1270509575684,0,Low Risk (No Failure)
191.4221380641111,22523.829264512842,14512.213080891746,0.6715335290546288,18272.004645506626,7360.701992340888,11413.791436770356,30237.17280301538,49303.204806360685,201.90834866446653,9.62699331679982,18.139534767455732,8515.708011583669,802.4277839283795,1203.2722274596633,0,Low Risk (No Failure)
110.57620984751529,21794.390222506037,25532.980687447962,0.15509427086070948,47395.483637311474,27655.723428796788,9174.079243800206,62528.48649671346,45825.28234950752,173.0701643368509,8.783793537575686,22.460138778607213,9095.37962742031,1484.968271124486,562.5032773343404,0,Low Risk (No Failure)
67.5145546840088,11693.029508654532,26071.884276212804,0.484425470834399,57512.855774671356,17871.332211528024,10091.13353592941,43541.220357691745,43640.95158544505,231.123947086528,9.57523406582034,20.482440551453585,9106.677355150328,1123.384604391852,1443.9734097962446,1,High Risk (Failure)
185.39812017203784,4871.950989231767,32519.09436392152,0.8664487806342642,40889.60604343786,11814.82639958989,2390.4949069447325,10833.019581479246,28294.971859223453,200.97195019450805,9.862302359958514,24.90673724764329,3614.825025117401,1681.1758882164143,1272.6867637390883,0,Low Risk (No Failure)
130.43183967287848,4958.5873504238825,15022.316522535417,0.8703037784998425,56930.894450969936,20577.767189701408,8946.201407811473,33893.75454807545,51944.71776783994,251.2939691685266,9.356931380624212,20.96601188763433,8681.03573103041,681.1693690152322,1024.7492172342945,1,High Risk (Failure)
170.7458146710611,18285.854001917258,22082.98049284564,0.735558198267917,32998.9267089214,25290.882999117664,5044.1762120100275,26019.32207388268,14025.24743008986,251.75527787776107,10.158295437273313,19.861543334211465,8482.944397454583,1328.3444740197392,794.9736492910301,1,High Risk (Failure)
212.11428902558657,14729.63412187562,14987.362886942099,0.7467467725125942,23303.03980194202,6518.843239700502,7430.094349478703,12334.20806578585,15689.066509723481,263.3476838170383,9.978068174877482,18.100621150953465,9167.713125674218,998.7695384156973,1328.504619676587,1,High Risk (Failure)
216.9829970866915,7360.29163513008,10230.701229526148,0.46712309269313945,47754.492993202795,27473.704639526106,2875.0063840156654,46321.11919357178,41862.69546733874,194.82018581576241,9.678003621438583,22.361433559808766,6645.759230093646,1008.3261819339314,701.8468474244607,1,High Risk (Failure)
120.86408783526554,28471.900077871902,25385.24068209666,0.7905083811731562,28088.698827431886,22473.31567113158,12364.601715280962,45170.271088941096,61655.17469180122,202.1282737388632,10.13902165271292,20.8640739776179,4736.526135141919,828.5458227556172,1263.423259989038,1,High Risk (Failure)
112.04649893787965,21754.21691009703,31669.74915668997,0.4577493673821993,52677.86000323925,12399.762381894845,3372.4089990865227,32470.8770595129,24634.91534071752,193.3901715894498,10.549089104806693,24.12202932421392,6145.386203826802,1936.0954045476676,979.778267808978,0,Low Risk (No Failure)
109.03415488685125,5945.3812924194835,6916.273515856652,0.7802034968567615,59431.20920409004,5820.917015753083,9778.691843567036,31057.82626304209,25873.853644889525,208.71431830122805,11.188413292447063,24.482918200629896,9823.423766898497,1948.0057249016302,873.8423855676817,0,Low Risk (No Failure)
139.8233063257507,8351.318844458521,28767.521004920545,0.47159467227679375,36198.036498531335,12197.269352380312,2917.3516486580365,51827.232847127205,64396.99060059746,166.56232083629834,11.128843790852873,21.57788364622125,5734.723034299126,1491.7715387954308,736.808736840277,1,High Risk (Failure)
150.40351885744258,8702.040350913438,30688.97980148351,0.2542250300825091,21696.09482078054,20784.382690103863,1280.3257613643284,65864.33032315967,43702.743177865996,179.3924102963872,8.599679205118823,24.771488901292617,6572.92195497237,677.9382585675287,1018.1818702163431,1,High Risk (Failure)
63.15368604069826,11403.532805743771,16618.735210259896,0.31409045523357804,49273.21377551826,21542.55231605514,8654.576254222631,40269.97176631485,29284.11949947066,248.41588245678813,11.988151827126426,19.760332923485606,6148.5506121340395,1100.7719964674548,898.9812325954522,1,High Risk (Failure)
63.72350971773214,10920.013605069105,20392.08268590314,0.7203242773264015,53533.33389595371,26720.226790786237,12052.963275584609,38865.99287247636,53219.698079769965,257.1209752718073,11.346336454000848,22.753839457462444,7035.412973374579,724.0815540888683,1440.97886388748,1,High Risk (Failure)
178.65057735469273,5886.924660316342,5979.651037826078,0.8702416582470018,36951.134499096675,11153.277792955632,7398.608342758938,50821.873467229416,26729.953067880284,102.10135684603416,10.894925714083005,21.51370901895322,3038.0460673963403,586.7895636816419,660.8792568031117,0,Low Risk (No Failure)
87.57117939226077,20792.840173369805,23287.056016953924,0.8429724020485632,37267.75805189437,25939.63057801948,12576.910141557599,52335.3798027507,32572.585742783256,216.97680679382935,10.675398818421604,20.221555044161416,6968.141509136569,1803.0448797943102,720.3597628273748,1,High Risk (Failure)
151.10037778916524,11680.568562015576,28333.747412590714,0.06742386620368168,30179.794957511644,22883.838656697142,7166.655221057342,29404.66794564197,36494.64405385081,269.0557778357514,8.087115679767404,21.194197485423356,5642.19608047182,1649.2390306564755,1471.7139960295322,1,High Risk (Failure)
120.6464776612856,27464.942319819867,29408.836406689406,0.4910384698381226,56918.3832418613,18719.312844044245,10735.114167822114,40322.06096922197,12031.668722037448,250.7827022401471,11.16765136682957,22.006733794861915,7325.264775056651,1304.1463423004288,681.998096295385,0,Low Risk (No Failure)
